%chk=#basename#.chk
%NprocShared=8
%mem=10GB
#P B3LYP/CC-PVDZ SCF=TIGHT  NOSYMMETRY 

Frequency at B3LYP/cc-pVDZ

0  1  
#coordinate#

