%nprocshared=16
%chk=rhodamine1.chk
%mem=1GB
#p opt b3lyp/cc-pvdz geom=connectivity

Rhodamine (1)

1 1
 C                  3.58987000   -1.82408100   -0.06791600
 C                  2.32486000   -2.44690400   -0.03123300
 C                  1.18232500   -1.66635100   -0.01310500
 C                  1.21733900   -0.23783900   -0.01925500
 C                  2.51385800    0.36249400   -0.08133400
 C                  3.65597600   -0.39301800   -0.10123100
 C                  0.00011700    0.48642900   -0.00010800
 C                 -1.21774200   -0.23681600    0.01886800
 C                 -1.18384300   -1.66533900    0.01293400
 C                 -2.32701300   -2.44496800    0.03139900
 H                 -2.22794600   -3.53097900    0.02371700
 C                 -3.59151000   -1.82112200    0.06800500
 C                 -3.65648900   -0.38999500    0.10074100
 C                 -2.51377000    0.36458500    0.08077800
 H                  2.22490300   -3.53283300   -0.02325200
 H                  2.58568300    1.44868200   -0.12121400
 H                  4.63256200    0.09243300   -0.15221400
 H                 -4.63270400    0.09624100    0.15131700
 H                 -2.58461100    1.45085100    0.12040400
 C                  0.00083500    1.97421100    0.00001700
 C                 -0.52120300    2.68597400   -1.09554300
 C                  0.52364000    2.68517100    1.09567900
 C                 -0.50976800    4.08247800   -1.09644700
 C                  0.51371500    4.08171200    1.09681500
 H                  0.91781800    2.14246200    1.95750600
 C                  0.00237200    4.78255200    0.00026200
 H                 -0.90322200    4.62484600   -1.95839000
 H                  0.90776400    4.62346500    1.95887800
 H                  0.00296900    5.87428300    0.00036900
 O                 -0.00103700   -2.33390000   -0.00017100
 N                  4.72666100   -2.55255300   -0.08218200
 H                  5.63263900   -2.10476500   -0.11838900
 H                  4.70392100   -3.56361800   -0.07024100
 N                 -4.72888700   -2.54869400    0.08279600
 H                 -4.70695100   -3.55977600    0.07103400
 H                 -5.63449900   -2.10017600    0.11906500
 C                 -1.07774150    1.92137042   -2.31096320
 O                 -1.54642297    2.55054944   -3.29485446
 O                 -1.06188023    0.49149755   -2.32154575
 H                 -1.20603459    0.17604049   -3.21670292

 1 2 1.5 6 1.5 31 1.5
 2 3 2.0 15 1.0
 3 4 1.5 30 1.0
 4 5 1.5 7 1.5
 5 6 2.0 16 1.0
 6 17 1.0
 7 8 1.5 20 1.0
 8 9 1.5 14 1.5
 9 10 2.0 30 1.0
 10 11 1.0 12 1.5
 11
 12 13 1.5 34 1.5
 13 14 2.0 18 1.0
 14 19 1.0
 15
 16
 17
 18
 19
 20 21 1.5 22 1.5
 21 23 1.5 37 1.0
 22 24 1.5 25 1.0
 23 26 1.5 27 1.0
 24 26 1.5 28 1.0
 25
 26 29 1.0
 27
 28
 29
 30
 31 32 1.0 33 1.0
 32
 33
 34 35 1.0 36 1.0
 35
 36
 37 38 2.0 39 1.0
 38
 39 40 1.0
 40

