%NprocShared=16
%chk=imidazole.chk
%mem=1gb
#P B3LYP/cc-pVDZ opt pop=esp

B3LYP/cc-pVDZ imidazole

0 1
 C                 -1.54570499   -1.38320842   -0.14843191
 C                  0.28004301   -0.01241242   -0.14843191
 C                 -0.87701399    0.77904058   -0.14853591
 N                 -1.98543199   -0.06270042   -0.14844091
 H                 -2.92575999    0.22800058   -0.14865791
 H                 -2.24729299   -2.21644142   -0.14833391
 H                  1.30460601    0.34407958   -0.14845691
 H                 -0.98593599    1.86281258   -0.14868291
 N                 -0.14395499   -1.38320842   -0.14843191

