%NprocShared=16
%chk=gaussian.chk
%mem=1gb
#P B3LYP/cc-pVDZ EmpiricalDispersion=GD3
scf(conver=8) iop(4/5=100) nosymm
Charge Force Prop=(Field,Read) pop=mk

Gaussian run for QMMM in genesis

-1 1
 P        -5.2993729429     -10.5544956244      -5.4082840197
 O        -5.5546293640     -10.5959016823      -3.7530802227
 H        -5.2083490391     -11.4033295372      -3.3650129662
 O        -6.1244287505      -9.2658385496      -5.7855814358
 H        -7.0800085000      -9.3088405914      -5.7014436511
 O        -3.8810075729     -10.2724984389      -5.6912444733
 O        -5.9116832213     -11.8121903603      -6.0390155377
 
     -2.2977026625     -14.0639939367     -21.4256732974      -0.8340000000
     -2.6082230978     -14.2395288533     -20.5374186085       0.4170000000
     -1.4644869861     -14.5313484713     -21.4853659747       0.4170000000
      1.3082112754      -4.3205574465     -12.6044745083      -0.8340000000
      1.0036293043      -3.6443041367     -13.2095721234       0.4170000000
      2.1335564252      -3.9798791862     -12.2595461873       0.4170000000
      5.0563321754     -20.5447760511      -5.6893914025      -0.8340000000
      4.2512853288     -20.3409514779      -6.1654029130       0.4170000000
      5.5002703217     -19.7018328849      -5.5966682619       0.4170000000
    -19.9553721839     -15.9808194025      -0.4843921603      -0.8340000000
    -20.1520448538     -15.3600270830       0.2171551274       0.4170000000
    -19.5624708872     -16.7308683025      -0.0379763690       0.4170000000
     -5.5930000000      -9.4960000000      11.9470000000      -0.8340000000
     -4.8730000000      -9.3010000000      11.3470000000       0.4170000000
     -5.2990000000     -10.2650000000      12.4340000000       0.4170000000
    -18.2249998842     -15.5747149171       1.6754692252      -0.8340000000
    -18.7624962738     -16.2123837927       2.1452647937       0.4170000000
    -17.3693158679     -15.9958726022       1.5938425847       0.4170000000
    -20.5030000000      -8.7000000000     -18.3330000000      -0.8340000000
    -20.1000000000      -7.9550000000     -18.7790000000       0.4170000000
    -19.9410000000      -9.4440000000     -18.5520000000       0.4170000000
    -21.7340000000     -19.2730000000      -3.2290000000      -0.8340000000
    -21.4420000000     -19.8120000000      -3.9640000000       0.4170000000
    -21.3640000000     -18.4080000000      -3.4020000000       0.4170000000
     -7.4235164419       2.4453588078       5.3464568064      -0.8340000000
     -7.4648617123       3.0579832309       4.6121450709       0.4170000000
     -7.8925002235       2.8871994739       6.0543147572       0.4170000000
    -20.7830000000     -19.9770000000      -0.1600000000      -0.8340000000
    -21.3390000000     -19.8850000000      -0.9340000000       0.4170000000
    -20.1610000000     -20.6670000000      -0.3920000000       0.4170000000
     -1.2455636988     -19.2130121749       4.0203765934      -0.8340000000
     -1.1734547863     -20.1224570516       3.7306488575       0.4170000000
     -1.9846682338     -19.2127970520       4.6286169079       0.4170000000
    -21.0866821576     -14.1783452950       1.6509693015      -0.8340000000
    -20.6065476371     -13.6748775734       2.3084059413       0.4170000000
    -21.4152441520     -13.5207410380       1.0379150650       0.4170000000
    -22.5140000000     -16.5510000000       6.1750000000      -0.8340000000
    -22.8920000000     -16.5770000000       7.0540000000       0.4170000000
    -22.7990000000     -17.3680000000       5.7660000000       0.4170000000
     -4.5492902318     -12.8881791428       9.1064727241      -0.8340000000
     -4.8145840177     -12.3177393198       9.8278945531       0.4170000000
     -3.8220787606     -12.4257759367       8.6898450833       0.4170000000
     -3.8050982241     -21.0275391971       1.1415909241      -0.8340000000
     -4.1936926571     -21.8136434924       0.7578380823       0.4170000000
     -4.1576383657     -20.3064558074       0.6200681216       0.4170000000
     -9.4255798637     -24.4769426123     -11.0229676969      -0.8340000000
     -9.3477432369     -23.7283182757     -10.4315838096       0.4170000000
     -8.6166943263     -24.9716121810     -10.8916739606       0.4170000000
    -19.0548012160     -13.2934746280     -14.3922725157      -0.8340000000
    -18.9980441537     -13.1658260240     -13.4453214558       0.4170000000
    -19.9836997263     -13.4550683808     -14.5573993052       0.4170000000
    -17.7510000000       1.0020000000     -15.1100000000      -0.8340000000
    -17.1890000000       0.2420000000     -14.9580000000       0.4170000000
    -17.2010000000       1.7550000000     -14.8950000000       0.4170000000
     -4.0059424768      -5.9834702333       4.5264080640      -0.8340000000
     -4.9365436022      -5.8139531821       4.3798565208       0.4170000000
     -3.9593078978      -6.3038183050       5.4272044722       0.4170000000
      5.9960000000     -25.0310000000      -6.8440000000      -0.8340000000
      6.2450000000     -25.2160000000      -7.7490000000       0.4170000000
      6.5630000000     -25.5950000000      -6.3180000000       0.4170000000
    -18.2354188222     -12.9274685768       1.7510374902      -0.8340000000
    -18.3261267147     -13.8794827845       1.7101367981       0.4170000000
    -19.1329075654     -12.5985018566       1.7007712712       0.4170000000
      5.1020000000     -24.2100000000     -13.9410000000      -0.8340000000
      4.2860000000     -24.5860000000     -14.2730000000       0.4170000000
      5.5770000000     -24.9540000000     -13.5710000000       0.4170000000
    -11.7830000000       2.5430000000     -17.5750000000      -0.8340000000
    -11.3150000000       1.9990000000     -18.2080000000       0.4170000000
    -11.5370000000       2.1850000000     -16.7220000000       0.4170000000
      6.7990000000     -21.9970000000       4.9320000000      -0.8340000000
      6.5480000000     -21.0880000000       5.0980000000       0.4170000000
      7.1110000000     -21.9980000000       4.0270000000       0.4170000000
      5.4638221831     -12.5933601386       2.3415355432      -0.8340000000
      6.3626761025     -12.6143162778       2.0131237412       0.4170000000
      5.5360019734     -12.8667760549       3.2560111605       0.4170000000
    -11.1612419067     -27.0983249073      -7.6161209141      -0.8340000000
    -11.3180234598     -27.2457686431      -8.5488115001       0.4170000000
    -10.3485385789     -27.5693218168      -7.4319822378       0.4170000000
    -25.2000000000     -16.9990000000       1.4350000000      -0.8340000000
    -25.5770000000     -17.8140000000       1.1020000000       0.4170000000
    -24.2810000000     -17.2090000000       1.5990000000       0.4170000000
     10.4244054366      -5.6314153143      -6.3391132992      -0.8340000000
      9.5590115163      -5.8292884250      -5.9811029155       0.4170000000
     10.5790863786      -6.3189617156      -6.9868675677       0.4170000000
     -9.6591099846     -12.9337202697       6.3130404069      -0.8340000000
     -9.9402240111     -12.5658919903       5.4752402511       0.4170000000
     -9.4658017638     -12.1705126573       6.8574464246       0.4170000000
    -14.2442372519      -3.7201841670     -19.2742471312      -0.8340000000
    -14.3202557208      -4.0073493347     -20.1841862494       0.4170000000
    -14.3790985740      -2.7731840338     -19.3093898614       0.4170000000
     -8.2561598922     -14.5870669987     -18.9903793494      -0.8340000000
     -8.0372189568     -14.6814520189     -19.9174112662       0.4170000000
     -7.6205607946     -15.1401736069     -18.5361561585       0.4170000000
     -4.1330000000       5.8640000000       5.6920000000      -0.8340000000
     -3.4210000000       5.9530000000       6.3250000000       0.4170000000
     -4.1930000000       4.9220000000       5.5300000000       0.4170000000
    -14.8123907805     -11.9779904833       1.6503389651      -0.8340000000
    -15.2009201023     -11.1295945646       1.8636490006       0.4170000000
    -13.8825746659     -11.8737266246       1.8523361948       0.4170000000
     -5.2727947735     -15.6809221425      -8.2603114769      -0.8340000000
     -4.5473234406     -15.9040254982      -8.8435336284       0.4170000000
     -5.2883628564     -14.7238856821      -8.2519038535       0.4170000000
    -17.2044572125      -4.0635388705     -15.0599868412      -0.8340000000
    -17.5297374481      -4.9635700498     -15.0791827978       0.4170000000
    -17.9032777847      -3.5471825581     -15.4615560215       0.4170000000
      6.0564561130     -16.8310871041      -7.8714744012      -0.8340000000
      6.3542504945     -16.1212341887      -7.3025638767       0.4170000000
      5.2435917688     -17.1364815570      -7.4687119077       0.4170000000
    -11.9690000000     -26.2380000000     -16.1010000000      -0.8340000000
    -12.9220000000     -26.3080000000     -16.0580000000       0.4170000000
    -11.6790000000     -27.0940000000     -16.4170000000       0.4170000000
    -13.7270000000       7.0930000000     -10.9470000000      -0.8340000000
    -13.7370000000       7.9660000000     -11.3390000000       0.4170000000
    -12.8890000000       6.7180000000     -11.2160000000       0.4170000000
      7.5890000000       1.3110000000     -15.5450000000      -0.8340000000
      8.1750000000       1.4020000000     -14.7940000000       0.4170000000
      7.2870000000       2.2020000000     -15.7240000000       0.4170000000
    -17.5940000000     -10.4620000000      10.7710000000      -0.8340000000
    -17.9620000000     -10.2380000000      11.6250000000       0.4170000000
    -16.8110000000      -9.9170000000      10.6960000000       0.4170000000
     -4.4890000000      -0.0580000000     -22.2840000000      -0.8340000000
     -3.9370000000      -0.8150000000     -22.4830000000       0.4170000000
     -5.0980000000      -0.3750000000     -21.6170000000       0.4170000000
    -21.8117400430      -3.6425461110      -5.1270707366      -0.8340000000
    -22.6921551061      -3.8736075223      -5.4232324842       0.4170000000
    -21.2868318602      -4.4235139881      -5.3025484125       0.4170000000
    -18.7740000000      -1.1270000000     -16.7720000000      -0.8340000000
    -19.3860000000      -1.7410000000     -16.3670000000       0.4170000000
    -18.4860000000      -0.5650000000     -16.0530000000       0.4170000000
    -16.1154933867     -23.4796703124      -3.4880648355      -0.8340000000
    -15.5352066458     -22.8762242570      -3.0240044983       0.4170000000
    -15.5676785812     -24.2413862079      -3.6775896978       0.4170000000
      9.5420000000     -21.0270000000     -12.6220000000      -0.8340000000
     10.3070000000     -20.4540000000     -12.5650000000       0.4170000000
      9.6990000000     -21.5590000000     -13.4020000000       0.4170000000
    -12.7821782321      -7.8406633722       4.0533194511      -0.8340000000
    -11.9771279643      -7.5582997923       4.4873663554       0.4170000000
    -13.3867159908      -8.0325973124       4.7702066815       0.4170000000
      9.4390000000      -5.1810000000       4.5990000000      -0.8340000000
      9.4310000000      -5.6600000000       3.7710000000       0.4170000000
      9.3890000000      -5.8610000000       5.2710000000       0.4170000000
      0.5203171544     -16.9553278432       7.4546192945      -0.8340000000
     -0.2154021500     -16.9801935322       6.8427936309       0.4170000000
      0.7204432421     -17.8753974244       7.6268207893       0.4170000000
     -2.3670000000     -28.1780000000      -8.6920000000      -0.8340000000
     -2.3860000000     -28.7870000000      -9.4300000000       0.4170000000
     -2.0390000000     -28.6990000000      -7.9590000000       0.4170000000
     -5.3027584862      -5.8415282921       7.5536300886      -0.8340000000
     -5.7498891001      -4.9959872520       7.5905949852       0.4170000000
     -4.5425622111      -5.7362164935       8.1256815621       0.4170000000
    -13.4680000000     -12.0270000000     -23.1910000000      -0.8340000000
    -14.0470000000     -12.6070000000     -22.6960000000       0.4170000000
    -12.6100000000     -12.4490000000     -23.1460000000       0.4170000000
     -1.6953713547     -11.0673803457      -6.8115660064      -0.8340000000
     -1.8852178269     -12.0027974175      -6.8835733593       0.4170000000
     -2.4353837278     -10.7093623280      -6.3212226300       0.4170000000
     -6.8181090398     -17.1823336365     -14.0895894056      -0.8340000000
     -6.7771319683     -16.2296477727     -14.1729102589       0.4170000000
     -7.7172175751     -17.4058275929     -14.3301847782       0.4170000000
    -17.9873202251      -7.0983957070     -11.3969793155      -0.8340000000
    -18.3193708404      -7.4181105509     -12.2358813643       0.4170000000
    -17.7517663799      -6.1858219890     -11.5641781051       0.4170000000
    -10.4656148252      -0.1420671199      -9.4631271734      -0.8340000000
    -10.3221197025       0.3930069831      -8.6825269594       0.4170000000
     -9.6082566709      -0.5223306492      -9.6543560508       0.4170000000
    -21.6738738812     -17.7416360022      -8.8506379402      -0.8340000000
    -20.7539765572     -17.9482611008      -8.6853296768       0.4170000000
    -21.6823377161     -16.7985879299      -9.0144077079       0.4170000000
     -4.9948639162     -23.1807389624      -0.0859100132      -0.8340000000
     -5.0154217972     -24.1307867922      -0.2008810298       0.4170000000
     -5.8776538463     -22.8918610768      -0.3171314365       0.4170000000
    -11.8880000000     -15.4980000000      11.7450000000      -0.8340000000
    -12.7380000000     -15.5450000000      11.3080000000       0.4170000000
    -11.7160000000     -14.5610000000      11.8370000000       0.4170000000
     10.4631749860     -12.6873368770      -7.5330159890      -0.8340000000
     10.0967574772     -13.2943747902      -6.8899957551       0.4170000000
     11.0375974931     -12.1158542551      -7.0234296507       0.4170000000
     -2.5857131597     -20.3180814670     -13.5539365337      -0.8340000000
     -1.7142776560     -20.1068377898     -13.8889113265       0.4170000000
     -3.1875523280     -19.9137492058     -14.1788660322       0.4170000000
     -0.0800000000       2.7290000000     -16.4170000000      -0.8340000000
      0.8110000000       2.4130000000     -16.5680000000       0.4170000000
     -0.0200000000       3.2370000000     -15.6080000000       0.4170000000
    -15.5400711089      -9.3004729302      -7.5651704658      -0.8340000000
    -14.6126325451      -9.4148624581      -7.3577949940       0.4170000000
    -15.9737862096     -10.0413998208      -7.1419088515       0.4170000000
     -9.3861792565     -12.4995680091       3.4289505538      -0.8340000000
    -10.0252973780     -11.9038786003       3.0379083628       0.4170000000
     -8.7659719463     -12.6829948936       2.7233094903       0.4170000000
     -6.9900000000       8.5940000000     -10.5640000000      -0.8340000000
     -7.2530000000       7.7260000000     -10.2590000000       0.4170000000
     -7.7750000000       8.9510000000     -10.9790000000       0.4170000000
     -8.8396076006     -16.3853832792      -4.5947936814      -0.8340000000
     -8.5971203986     -16.5762214724      -3.6886962358       0.4170000000
     -8.0428074336     -16.0273554297      -4.9861469654       0.4170000000
     -5.6390000000     -16.7630000000      12.5490000000      -0.8340000000
     -5.4510000000     -16.0280000000      11.9660000000       0.4170000000
     -4.7780000000     -17.0980000000      12.7990000000       0.4170000000
      7.9770000000      -3.4280000000       7.8400000000      -0.8340000000
      8.6330000000      -2.7740000000       7.6000000000       0.4170000000
      7.5300000000      -3.6330000000       7.0190000000       0.4170000000
    -17.1141298954     -10.3470706928       5.9980966750      -0.8340000000
    -17.0755501849     -11.2839362731       5.8056744041       0.4170000000
    -17.1376456501      -9.9263216828       5.1386496901       0.4170000000
    -14.8043482413      -9.3954526920       2.6122488425      -0.8340000000
    -15.4398168064      -9.1626432075       3.2891618995       0.4170000000
    -14.0013885848      -8.9433002626       2.8711809004       0.4170000000
      9.0640000000     -11.5730000000       5.2100000000      -0.8340000000
      9.2700000000     -11.9060000000       6.0840000000       0.4170000000
      9.2490000000     -12.3070000000       4.6240000000       0.4170000000
    -18.3046598266     -15.9472431609     -15.3590603265      -0.8340000000
    -18.1713573607     -15.1223623967     -14.8921191981       0.4170000000
    -19.2531081172     -16.0762144211     -15.3524199782       0.4170000000
     -4.9460000000       7.1710000000       1.2470000000      -0.8340000000
     -5.0380000000       7.0520000000       2.1920000000       0.4170000000
     -5.6590000000       7.7640000000       1.0100000000       0.4170000000
     -1.8693608402     -16.6877547488       5.9978717259      -0.8340000000
     -1.5622204412     -17.1652419245       5.2272209539       0.4170000000
     -2.7815568617     -16.9590477003       6.1004894276       0.4170000000
     10.1910000000     -18.5640000000      -8.9970000000      -0.8340000000
     10.2560000000     -19.2990000000      -9.6060000000       0.4170000000
      9.6800000000     -17.9060000000      -9.4680000000       0.4170000000
     -4.7980000000      -4.5460000000      14.4130000000      -0.8340000000
     -5.0430000000      -5.0620000000      15.1810000000       0.4170000000
     -4.5650000000      -5.1970000000      13.7510000000       0.4170000000
     -3.9016900874      -8.8039769599     -21.7840183524      -0.8340000000
     -3.5666888600      -9.4161053268     -21.1288047384       0.4170000000
     -3.2648645573      -8.0894065461     -21.7926327487       0.4170000000
    -25.9690000000     -18.4970000000      -1.7330000000      -0.8340000000
    -26.2680000000     -18.2900000000      -2.6180000000       0.4170000000
    -25.1230000000     -18.0560000000      -1.6570000000       0.4170000000
    -15.8442310793      -2.9051464998      -7.2217482099      -0.8340000000
    -15.9413640155      -3.4156947338      -8.0255750155       0.4170000000
    -15.3706770881      -2.1186667175      -7.4927242412       0.4170000000
    -25.1130000000     -15.3660000000      -0.8340000000      -0.8340000000
    -25.4190000000     -15.7920000000      -1.6350000000       0.4170000000
    -25.1990000000     -16.0380000000      -0.1570000000       0.4170000000
     -7.4392023668     -18.7922312002     -16.4218637111      -0.8340000000
     -6.7346170806     -18.2447723467     -16.7683896384       0.4170000000
     -6.9973059960     -19.4157326301     -15.8454910847       0.4170000000
    -11.2275323205      -0.4834510251      -4.5293104513      -0.8340000000
    -10.6626925487      -0.9988189512      -5.1051435633       0.4170000000
    -12.0292952902      -1.0008498685      -4.4537696201       0.4170000000
      1.9514914446      -0.2754741327     -10.6073898572      -0.8340000000
      1.1906613259      -0.0663372394     -11.1492672697       0.4170000000
      2.3422851665       0.5743578923     -10.4041716586       0.4170000000
     -4.8510480963       5.4635619104      -2.6272554940      -0.8340000000
     -3.9407682290       5.1737428790      -2.5670281562       0.4170000000
     -5.3577687692       4.6533176098      -2.6817547884       0.4170000000
      5.3170000000       0.2840000000     -16.9880000000      -0.8340000000
      4.5690000000       0.8710000000     -17.1010000000       0.4170000000
      5.8920000000       0.7440000000     -16.3760000000       0.4170000000
     -9.8520000000       8.8440000000       1.8950000000      -0.8340000000
    -10.7200000000       9.0520000000       2.2430000000       0.4170000000
     -9.8490000000       7.8910000000       1.8120000000       0.4170000000
    -18.8465655752     -22.1459401656      -7.9884298097      -0.8340000000
    -18.8936850103     -21.5712564683      -7.2243943086       0.4170000000
    -19.7591765153     -22.3531620419      -8.1895074214       0.4170000000
      0.9530000000      -4.3560000000      11.4070000000      -0.8340000000
      0.8480000000      -3.4320000000      11.1790000000       0.4170000000
      1.6480000000      -4.3630000000      12.0650000000       0.4170000000
     -0.9694350924       0.7207137091       1.1583116446      -0.8340000000
     -0.9588574937       0.5929955180       2.1068937539       0.4170000000
     -1.5611649816       1.4607201791       1.0223778276       0.4170000000
    -19.4450000000     -19.8340000000     -18.6330000000      -0.8340000000
    -18.9380000000     -19.1450000000     -18.2030000000       0.4170000000
    -20.3540000000     -19.6420000000     -18.4030000000       0.4170000000
    -16.6019239928     -16.7489661686     -10.8584153346      -0.8340000000
    -16.2927844442     -17.6073151182     -10.5687575014       0.4170000000
    -15.8739424202     -16.3904841704     -11.3661212799       0.4170000000
     -4.1007187288       0.4129735881     -10.5842519827      -0.8340000000
     -5.0347128086       0.2035342708     -10.5889499903       0.4170000000
     -4.0505297180       1.2942721901     -10.9544217780       0.4170000000
    -22.2260350977      -6.6935323718      -7.9120581919      -0.8340000000
    -21.9237390612      -6.6079563788      -7.0078869162       0.4170000000
    -21.4336001360      -6.8875413923      -8.4126969553       0.4170000000
     10.4640000000      -3.2980000000     -17.0380000000      -0.8340000000
      9.9960000000      -2.6400000000     -16.5240000000       0.4170000000
      9.8830000000      -4.0590000000     -17.0390000000       0.4170000000
    -14.1800328871     -15.2586524410       4.6991574556      -0.8340000000
    -14.2975530363     -15.6692333102       3.8425103845       0.4170000000
    -13.6376068572     -14.4896057761       4.5243058916       0.4170000000
     -6.8509223229       4.9866320424      -5.6774816920      -0.8340000000
     -6.3965986358       4.1462543595      -5.6175886426       0.4170000000
     -7.6507595435       4.8640155306      -5.1661525890       0.4170000000
      0.4480000000     -27.6550000000       4.3590000000      -0.8340000000
      0.0130000000     -28.5030000000       4.2820000000       0.4170000000
      0.1600000000     -27.1660000000       3.5880000000       0.4170000000
     -0.8670000000      -3.3690000000     -22.8590000000      -0.8340000000
     -0.3210000000      -2.8350000000     -23.4360000000       0.4170000000
     -0.3130000000      -4.1140000000     -22.6260000000       0.4170000000
     -6.3645713766      -4.6127099350       3.3602926937      -0.8340000000
     -7.2321640947      -5.0034676718       3.2562585334       0.4170000000
     -5.8918561681      -4.8630638536       2.5665074034       0.4170000000
    -21.3850000000      -1.0290000000       5.9340000000      -0.8340000000
    -20.4790000000      -0.9550000000       5.6330000000       0.4170000000
    -21.3280000000      -0.9590000000       6.8870000000       0.4170000000
      1.3112869911     -18.8560248027      -2.2120601542      -0.8340000000
      1.8119197269     -18.8181860674      -3.0270245301       0.4170000000
      0.4074929438     -18.6859230115      -2.4774910128       0.4170000000
     -0.7796949790     -10.2376665432       6.5578116776      -0.8340000000
     -0.5191756491     -10.3077858654       5.6394191693       0.4170000000
     -0.6292523958     -11.1119206757       6.9173649852       0.4170000000
      9.9160000000     -17.2030000000     -17.4370000000      -0.8340000000
     10.5000000000     -17.1530000000     -16.6800000000       0.4170000000
     10.4710000000     -17.5260000000     -18.1470000000       0.4170000000
      0.9762985162     -10.8909812539      -6.7898684706      -0.8340000000
      0.1195983297     -11.3063579997      -6.6910818853       0.4170000000
      1.4441091333     -11.1112199763      -5.9843376073       0.4170000000
    -12.9424934494      -3.6475395257      -0.0543886930      -0.8340000000
    -13.5110820356      -3.2814152645      -0.7318042855       0.4170000000
    -13.3174886925      -3.3343616984       0.7687334462       0.4170000000
      2.5280000000      -0.2490000000       9.9690000000      -0.8340000000
      3.3950000000      -0.6560000000       9.9690000000       0.4170000000
      2.6960000000       0.6730000000       9.7720000000       0.4170000000
      6.5970000000     -12.4080000000      12.0930000000      -0.8340000000
      5.8020000000     -12.6770000000      11.6310000000       0.4170000000
      6.3300000000     -12.3380000000      13.0090000000       0.4170000000
    -22.6540000000      -5.9510000000       3.8400000000      -0.8340000000
    -22.2600000000      -6.6000000000       3.2570000000       0.4170000000
    -22.1030000000      -5.1750000000       3.7420000000       0.4170000000
     10.9000000000     -23.7710000000     -10.1260000000      -0.8340000000
     10.5590000000     -23.1230000000      -9.5100000000       0.4170000000
     11.8490000000     -23.7350000000     -10.0110000000       0.4170000000
    -21.4291189193      -7.9827535928     -12.6368099300      -0.8340000000
    -21.9836317196      -8.5343375353     -13.1886274259       0.4170000000
    -20.5405867208      -8.1400070855     -12.9562057837       0.4170000000
    -18.9713548769     -12.9691252436     -11.4296414670      -0.8340000000
    -19.3365475401     -12.1566193811     -11.0793553237       0.4170000000
    -18.0771320507     -12.9966605236     -11.0892899054       0.4170000000
     -2.9768109491       1.1328373382      -3.3268756104      -0.8340000000
     -3.0922302057       0.6455485481      -4.1426328477       0.4170000000
     -2.0380041578       1.3152965802      -3.2870978074       0.4170000000
     -1.8310000000      -1.0780000000     -21.3540000000      -0.8340000000
     -1.0370000000      -0.5570000000     -21.4780000000       0.4170000000
     -1.7630000000      -1.7770000000     -22.0030000000       0.4170000000
    -19.6120000000     -22.3050000000     -15.9660000000      -0.8340000000
    -18.8090000000     -22.7630000000     -16.2180000000       0.4170000000
    -19.3160000000     -21.4380000000     -15.6900000000       0.4170000000
    -11.4383306994     -21.3907630092     -16.2662348557      -0.8340000000
    -10.5131381332     -21.2110720887     -16.0990172474       0.4170000000
    -11.6146708329     -22.2030119311     -15.7914847255       0.4170000000
     -7.9030000000     -12.4850000000     -22.8610000000      -0.8340000000
     -7.3680000000     -12.7750000000     -23.6010000000       0.4170000000
     -7.3960000000     -12.7330000000     -22.0880000000       0.4170000000
    -16.0862120973      -0.9228822805     -13.7260159607      -0.8340000000
    -15.1316514680      -0.9263145689     -13.6550648198       0.4170000000
    -16.3808560528      -1.5077287685     -13.0278960820       0.4170000000
     -5.1097170838     -24.6897340615       2.7421381702      -0.8340000000
     -5.3072264959     -24.0832046143       2.0284548358       0.4170000000
     -5.9663964428     -24.9887136573       3.0470045625       0.4170000000
      0.3710000000       4.8080000000     -13.5320000000      -0.8340000000
      0.8550000000       5.2820000000     -14.2080000000       0.4170000000
     -0.5490000000       4.9300000000     -13.7650000000       0.4170000000
      4.4569828012      -7.8487224406       1.1623029248      -0.8340000000
      5.0029249547      -7.1420854141       1.5070392266       0.4170000000
      4.3043074581      -8.4222315137       1.9133085324       0.4170000000
    -11.7170000000     -15.1930000000     -22.4150000000      -0.8340000000
    -10.8950000000     -15.6220000000     -22.1770000000       0.4170000000
    -11.4520000000     -14.3420000000     -22.7650000000       0.4170000000
      1.6120000000       1.6970000000       4.6020000000      -0.8340000000
      0.9040000000       2.2290000000       4.2400000000       0.4170000000
      2.3960000000       1.9920000000       4.1390000000       0.4170000000
     -8.3740000000     -28.0310000000      -8.1660000000      -0.8340000000
     -8.5540000000     -28.9650000000      -8.2740000000       0.4170000000
     -8.1760000000     -27.7210000000      -9.0500000000       0.4170000000
      2.7315209746     -14.5738688641      -4.1861040481      -0.8340000000
      2.1449805499     -15.2736753393      -4.4732852928       0.4170000000
      3.1308514149     -14.9096389514      -3.3835920619       0.4170000000
    -25.3650000000      -8.8600000000      -6.2720000000      -0.8340000000
    -25.4420000000      -7.9900000000      -5.8800000000       0.4170000000
    -26.1970000000      -8.9930000000      -6.7260000000       0.4170000000
    -19.3960000000     -16.6070000000       9.0060000000      -0.8340000000
    -19.8660000000     -15.9520000000       9.5210000000       0.4170000000
    -19.2530000000     -17.3330000000       9.6130000000       0.4170000000
      2.7183901564     -11.8976837112     -16.9841504486      -0.8340000000
      3.5363217775     -11.8391695135     -17.4779072632       0.4170000000
      2.8608838267     -11.3430546165     -16.2171341768       0.4170000000
      7.3457858522     -18.6973571917     -11.8983625049      -0.8340000000
      7.8291435554     -19.4599563207     -11.5804950178       0.4170000000
      6.8980487817     -18.3570606843     -11.1237905956       0.4170000000
    -11.5604815658      -4.6411797820     -19.2430078162      -0.8340000000
    -12.0415131852      -5.3477908569     -18.8122628685       0.4170000000
    -12.1276220530      -3.8753218279     -19.1533133240       0.4170000000
    -15.9987547300      -7.0735678070     -17.1193741874      -0.8340000000
    -16.6132800662      -6.4408183724     -17.4911518148       0.4170000000