%NprocShared=16
%chk=gaussian.chk
%mem=1gb
#P B3LYP/cc-pVDZ EmpiricalDispersion=GD3
scf(conver=8) iop(4/5=100) nosymm
Charge Force Prop=(Field,Read) pop=mk

Gaussian run for QMMM in genesis

-1 1
 P        -5.2470590446     -10.5747924888      -5.3846652506
 O        -5.6311341768     -10.6404364634      -3.7771648625
 H        -5.2475087873     -11.4456131959      -3.3750391717
 O        -6.0963444741      -9.2258494924      -5.7824753383
 H        -7.0756857222      -9.3678223099      -5.6617237481
 O        -3.7490238512     -10.3153770499      -5.5804736938
 O        -5.8155869006     -11.7948111040      -6.1321520538
 
     -2.7015961588     -14.6209341552     -20.9630295331      -0.8340000000
     -2.7363385649     -14.8216076531     -20.0093407046       0.4170000000
     -1.7836377604     -14.8650562823     -21.1761839289       0.4170000000
      1.0664685505      -4.2310346753     -12.8105603823      -0.8340000000
      0.7755686132      -3.3720336512     -13.1822212125       0.4170000000
      1.9599384080      -3.9879092374     -12.5172988891       0.4170000000
      5.0563321754     -20.5447760511      -5.6893914025      -0.8340000000
      4.2512853288     -20.3409514779      -6.1654029130       0.4170000000
      5.5002703217     -19.7018328849      -5.5966682619       0.4170000000
    -19.6474562689     -15.7505859499      -0.6727055617      -0.8340000000
    -19.9612028483     -15.2015160230       0.0746636831       0.4170000000
    -19.3553663064     -16.5578373981      -0.1947022925       0.4170000000
     -5.5930000000      -9.4960000000      11.9470000000      -0.8340000000
     -4.8730000000      -9.3010000000      11.3470000000       0.4170000000
     -5.2990000000     -10.2650000000      12.4340000000       0.4170000000
    -18.0030720802     -15.6880318360       2.0982623081      -0.8340000000
    -18.8215688257     -16.2112018264       2.2072285077       0.4170000000
    -17.3289342804     -16.3430360314       2.3420278237       0.4170000000
    -20.5030000000      -8.7000000000     -18.3330000000      -0.8340000000
    -20.1000000000      -7.9550000000     -18.7790000000       0.4170000000
    -19.9410000000      -9.4440000000     -18.5520000000       0.4170000000
    -21.7340000000     -19.2730000000      -3.2290000000      -0.8340000000
    -21.4420000000     -19.8120000000      -3.9640000000       0.4170000000
    -21.3640000000     -18.4080000000      -3.4020000000       0.4170000000
     -7.2672630927       2.3683655350       5.3258451901      -0.8340000000
     -7.5199274359       3.0111373732       4.6421741428       0.4170000000
     -7.7474500812       2.7051697916       6.1096788697       0.4170000000
    -20.7830000000     -19.9770000000      -0.1600000000      -0.8340000000
    -21.3390000000     -19.8850000000      -0.9340000000       0.4170000000
    -20.1610000000     -20.6670000000      -0.3920000000       0.4170000000
     -1.4606414181     -18.7654661251       3.7944695982      -0.8340000000
     -1.3242953162     -19.6693917554       3.4430541013       0.4170000000
     -2.2158100408     -18.9545658131       4.3856856378       0.4170000000
    -20.9771912923     -14.2502461507       1.2320018922      -0.8340000000
    -20.7459249559     -13.3255216271       1.4496344664       0.4170000000
    -21.5772220399     -14.0985124820       0.4711594507       0.4170000000
    -22.5140000000     -16.5510000000       6.1750000000      -0.8340000000
    -22.8920000000     -16.5770000000       7.0540000000       0.4170000000
    -22.7990000000     -17.3680000000       5.7660000000       0.4170000000
     -4.0865280526     -13.3076535925       9.3638294274      -0.8340000000
     -4.4595905263     -12.8257750239      10.1329612130       0.4170000000
     -3.5144030914     -12.5945501333       9.0100377504       0.4170000000
     -3.3717753836     -21.5065482754       0.8343109454      -0.8340000000
     -3.9007281695     -22.3336903651       0.8064718914       0.4170000000
     -4.0649384947     -20.8584025882       0.5935829029       0.4170000000
     -9.0871367216     -24.0923873201     -11.3729544466      -0.8340000000
     -8.8476407712     -23.3124966119     -10.8288364163       0.4170000000
     -8.4412317448     -24.7353561413     -11.0199366505       0.4170000000
    -19.2514104190     -13.3564979880     -14.3809884552      -0.8340000000
    -19.2537279962     -13.1118733317     -13.4272086784       0.4170000000
    -20.2037535193     -13.3618765645     -14.5828347356       0.4170000000
    -17.7510000000       1.0020000000     -15.1100000000      -0.8340000000
    -17.1890000000       0.2420000000     -14.9580000000       0.4170000000
    -17.2010000000       1.7550000000     -14.8950000000       0.4170000000
     -3.7047685567      -6.9812216699       4.1029907763      -0.8340000000
     -4.3158873218      -6.2636952126       3.8387939353       0.4170000000
     -3.6523503539      -6.7974096094       5.0705164574       0.4170000000
      5.9960000000     -25.0310000000      -6.8440000000      -0.8340000000
      6.2450000000     -25.2160000000      -7.7490000000       0.4170000000
      6.5630000000     -25.5950000000      -6.3180000000       0.4170000000
    -18.1289185570     -13.1343891866       3.0155097723      -0.8340000000
    -18.1664940476     -14.0583814819       2.6830647951       0.4170000000
    -19.0565390366     -13.0011539768       3.3095623788       0.4170000000
      5.1020000000     -24.2100000000     -13.9410000000      -0.8340000000
      4.2860000000     -24.5860000000     -14.2730000000       0.4170000000
      5.5770000000     -24.9540000000     -13.5710000000       0.4170000000
    -11.7830000000       2.5430000000     -17.5750000000      -0.8340000000
    -11.3150000000       1.9990000000     -18.2080000000       0.4170000000
    -11.5370000000       2.1850000000     -16.7220000000       0.4170000000
      6.7990000000     -21.9970000000       4.9320000000      -0.8340000000
      6.5480000000     -21.0880000000       5.0980000000       0.4170000000
      7.1110000000     -21.9980000000       4.0270000000       0.4170000000
      5.2787180845     -13.1718191321       2.4948370567      -0.8340000000
      6.1911588895     -13.0213433525       2.1648054756       0.4170000000
      5.4526604168     -13.5075459859       3.3994274204       0.4170000000
    -11.1612419067     -27.0983249073      -7.6161209141      -0.8340000000
    -11.3180234598     -27.2457686431      -8.5488115001       0.4170000000
    -10.3485385789     -27.5693218168      -7.4319822378       0.4170000000
    -25.2000000000     -16.9990000000       1.4350000000      -0.8340000000
    -25.5770000000     -17.8140000000       1.1020000000       0.4170000000
    -24.2810000000     -17.2090000000       1.5990000000       0.4170000000
     10.7015513850      -5.7311837094      -6.7345344679      -0.8340000000
      9.8987447596      -5.9176934091      -6.2018660001       0.4170000000
     10.6199395145      -6.3921154534      -7.4494788581       0.4170000000
     -9.3305835127     -12.3399239998       5.8731859637      -0.8340000000
     -9.4804993459     -12.6450355188       4.9532219655       0.4170000000
     -9.5521181813     -11.3896769246       5.7785391212       0.4170000000
    -14.2442372519      -3.7201841670     -19.2742471312      -0.8340000000
    -14.3202557208      -4.0073493347     -20.1841862494       0.4170000000
    -14.3790985740      -2.7731840338     -19.3093898614       0.4170000000
     -8.2722942805     -14.5097186792     -19.5750909991      -0.8340000000
     -7.6593583780     -14.2641850002     -20.2895026955       0.4170000000
     -7.8266546405     -15.3232831148     -19.2380617084       0.4170000000
     -4.1330000000       5.8640000000       5.6920000000      -0.8340000000
     -3.4210000000       5.9530000000       6.3250000000       0.4170000000
     -4.1930000000       4.9220000000       5.5300000000       0.4170000000
    -15.0280556526     -11.6530354232       1.7321511506      -0.8340000000
    -14.6518357020     -10.8680752365       2.1735225872       0.4170000000
    -14.2040112327     -12.0729876439       1.4109501618       0.4170000000
     -5.3504647977     -15.8455909554      -8.0060385301      -0.8340000000
     -4.5965240083     -16.3412526521      -8.3517867157       0.4170000000
     -4.9586050564     -14.9500407593      -7.9200412369       0.4170000000
    -17.8343006527      -4.6133566199     -15.2018700344      -0.8340000000
    -18.2990710359      -5.4223813048     -15.4726512870       0.4170000000
    -18.5090339903      -3.9319047899     -15.4058575602       0.4170000000
      5.7281337735     -16.8501603333      -8.1208259846      -0.8340000000
      6.3664576029     -16.1412041812      -7.8738191059       0.4170000000
      5.0165204464     -16.6121935932      -7.4992312006       0.4170000000
    -11.9690000000     -26.2380000000     -16.1010000000      -0.8340000000
    -12.9220000000     -26.3080000000     -16.0580000000       0.4170000000
    -11.6790000000     -27.0940000000     -16.4170000000       0.4170000000
    -13.7270000000       7.0930000000     -10.9470000000      -0.8340000000
    -13.7370000000       7.9660000000     -11.3390000000       0.4170000000
    -12.8890000000       6.7180000000     -11.2160000000       0.4170000000
      7.5890000000       1.3110000000     -15.5450000000      -0.8340000000
      8.1750000000       1.4020000000     -14.7940000000       0.4170000000
      7.2870000000       2.2020000000     -15.7240000000       0.4170000000
    -17.5940000000     -10.4620000000      10.7710000000      -0.8340000000
    -17.9620000000     -10.2380000000      11.6250000000       0.4170000000
    -16.8110000000      -9.9170000000      10.6960000000       0.4170000000
     -4.4890000000      -0.0580000000     -22.2840000000      -0.8340000000
     -3.9370000000      -0.8150000000     -22.4830000000       0.4170000000
     -5.0980000000      -0.3750000000     -21.6170000000       0.4170000000
    -21.8117400430      -3.6425461110      -5.1270707366      -0.8340000000
    -22.6921551061      -3.8736075223      -5.4232324842       0.4170000000
    -21.2868318602      -4.4235139881      -5.3025484125       0.4170000000
    -18.7740000000      -1.1270000000     -16.7720000000      -0.8340000000
    -19.3860000000      -1.7410000000     -16.3670000000       0.4170000000
    -18.4860000000      -0.5650000000     -16.0530000000       0.4170000000
    -16.1154933867     -23.4796703124      -3.4880648355      -0.8340000000
    -15.5352066458     -22.8762242570      -3.0240044983       0.4170000000
    -15.5676785812     -24.2413862079      -3.6775896978       0.4170000000
      9.5420000000     -21.0270000000     -12.6220000000      -0.8340000000
     10.3070000000     -20.4540000000     -12.5650000000       0.4170000000
      9.6990000000     -21.5590000000     -13.4020000000       0.4170000000
    -12.0917307435      -7.4246784722       3.7444758164      -0.8340000000
    -11.2224047736      -7.0139420504       3.9552136880       0.4170000000
    -12.3890563304      -7.6425090050       4.6635705417       0.4170000000
      9.4390000000      -5.1810000000       4.5990000000      -0.8340000000
      9.4310000000      -5.6600000000       3.7710000000       0.4170000000
      9.3890000000      -5.8610000000       5.2710000000       0.4170000000
      0.9791149855     -16.8285629153       7.3106435682      -0.8340000000
      0.0878795290     -16.9513448823       6.9295447487       0.4170000000
      1.1831915689     -17.7678326354       7.5101688751       0.4170000000
     -2.3670000000     -28.1780000000      -8.6920000000      -0.8340000000
     -2.3860000000     -28.7870000000      -9.4300000000       0.4170000000
     -2.0390000000     -28.6990000000      -7.9590000000       0.4170000000
     -3.8306456415      -6.0198487993       6.6116318449      -0.8340000000
     -4.4477930100      -5.2833590691       6.7658018125       0.4170000000
     -3.5076563180      -6.2157232880       7.5092691121       0.4170000000
    -13.4680000000     -12.0270000000     -23.1910000000      -0.8340000000
    -14.0470000000     -12.6070000000     -22.6960000000       0.4170000000
    -12.6100000000     -12.4490000000     -23.1460000000       0.4170000000
     -1.8851113015     -11.1268120128      -7.3091247656      -0.8340000000
     -1.7534709622     -12.0912584913      -7.1886426575       0.4170000000
     -2.5467395581     -10.9174643504      -6.6069202883       0.4170000000
     -6.0751787642     -17.2185528698     -14.2155919321      -0.8340000000
     -6.6574204584     -16.4592329205     -14.4065649221       0.4170000000
     -6.6965680508     -17.9438940919     -14.0104876229       0.4170000000
    -18.4542847000      -7.0752647914     -11.2768425158      -0.8340000000
    -18.5624393018      -7.5165402599     -12.1448779350       0.4170000000
    -18.2169876064      -6.1696868842     -11.5786231087       0.4170000000
    -10.6193494605       0.4849284347      -9.4142136787      -0.8340000000
    -10.2259409291       1.0059409260      -8.6830960298       0.4170000000
     -9.9613750806      -0.2361931644      -9.4779938868       0.4170000000
    -21.7178322596     -17.6259288235      -8.9388967881      -0.8340000000
    -20.7763826996     -17.8891572141      -8.9522261617       0.4170000000
    -21.6442836325     -16.6688174766      -8.7697453360       0.4170000000
     -5.1473836990     -23.5861510344       0.6206034573      -0.8340000000
     -4.9063632425     -24.4272644119       0.1765774257       0.4170000000
     -5.7955594242     -23.1988913872      -0.0000941333       0.4170000000
    -11.8880000000     -15.4980000000      11.7450000000      -0.8340000000
    -12.7380000000     -15.5450000000      11.3080000000       0.4170000000
    -11.7160000000     -14.5610000000      11.8370000000       0.4170000000
      9.7207312468     -12.1565869502      -7.4842768862      -0.8340000000
      9.7302111970     -12.9514059956      -6.9177777636       0.4170000000
     10.2366711684     -11.5309792796      -6.9256536434       0.4170000000
     -2.9139653571     -20.8773255377     -13.3905870703      -0.8340000000
     -1.9643420228     -21.0558027719     -13.2139665657       0.4170000000
     -2.8466653115     -19.9355071581     -13.6684398643       0.4170000000
     -0.0800000000       2.7290000000     -16.4170000000      -0.8340000000
      0.8110000000       2.4130000000     -16.5680000000       0.4170000000
     -0.0200000000       3.2370000000     -15.6080000000       0.4170000000
    -15.6500909479      -9.2532406761      -8.0036249808      -0.8340000000
    -14.8864426333      -9.8656251446      -8.0836664942       0.4170000000
    -16.2625411097      -9.8110048107      -7.4705273238       0.4170000000
     -9.8332592587     -12.9524211332       3.2331072400      -0.8340000000
    -10.5302823846     -12.2633704200       3.2652831492       0.4170000000
     -9.4277985511     -12.7421974884       2.3661911443       0.4170000000
     -6.9900000000       8.5940000000     -10.5640000000      -0.8340000000
     -7.2530000000       7.7260000000     -10.2590000000       0.4170000000
     -7.7750000000       8.9510000000     -10.9790000000       0.4170000000
     -9.4878027319     -16.1503287510      -4.6772286957      -0.8340000000
     -9.0962252096     -16.4220111862      -3.8207267908       0.4170000000
     -8.6811404388     -15.8739838229      -5.1541486992       0.4170000000
     -5.6390000000     -16.7630000000      12.5490000000      -0.8340000000
     -5.4510000000     -16.0280000000      11.9660000000       0.4170000000
     -4.7780000000     -17.0980000000      12.7990000000       0.4170000000
      7.9770000000      -3.4280000000       7.8400000000      -0.8340000000
      8.6330000000      -2.7740000000       7.6000000000       0.4170000000
      7.5300000000      -3.6330000000       7.0190000000       0.4170000000
    -17.1536682869     -10.1979736493       6.0225696900      -0.8340000000
    -16.9878481154     -11.1212493319       5.7395156339       0.4170000000
    -16.7612423328      -9.6736512776       5.2940470916       0.4170000000
    -13.8742564391      -9.3190738373       2.8329439058      -0.8340000000
    -14.6453956880      -9.0890365544       3.4062397569       0.4170000000
    -13.2740875880      -8.5807419251       3.0683957961       0.4170000000
      9.0640000000     -11.5730000000       5.2100000000      -0.8340000000
      9.2700000000     -11.9060000000       6.0840000000       0.4170000000
      9.2490000000     -12.3070000000       4.6240000000       0.4170000000
    -18.5340829896     -16.0543845410     -14.6831384937      -0.8340000000
    -18.6738105798     -15.0831812388     -14.6349721317       0.4170000000
    -19.3367503642     -16.3647536884     -15.1510202956       0.4170000000
     -4.9460000000       7.1710000000       1.2470000000      -0.8340000000
     -5.0380000000       7.0520000000       2.1920000000       0.4170000000
     -5.6590000000       7.7640000000       1.0100000000       0.4170000000
     -1.5477554744     -17.3128489750       6.2560282327      -0.8340000000
     -1.2438646563     -17.4990840435       5.3484787996       0.4170000000
     -2.2328250234     -18.0065667865       6.3230706086       0.4170000000
     10.1910000000     -18.5640000000      -8.9970000000      -0.8340000000
     10.2560000000     -19.2990000000      -9.6060000000       0.4170000000
      9.6800000000     -17.9060000000      -9.4680000000       0.4170000000
     -4.7980000000      -4.5460000000      14.4130000000      -0.8340000000
     -5.0430000000      -5.0620000000      15.1810000000       0.4170000000
     -4.5650000000      -5.1970000000      13.7510000000       0.4170000000
     -3.9016900874      -8.8039769599     -21.7840183524      -0.8340000000
     -3.5666888600      -9.4161053268     -21.1288047384       0.4170000000
     -3.2648645573      -8.0894065461     -21.7926327487       0.4170000000
    -25.9690000000     -18.4970000000      -1.7330000000      -0.8340000000
    -26.2680000000     -18.2900000000      -2.6180000000       0.4170000000
    -25.1230000000     -18.0560000000      -1.6570000000       0.4170000000
    -15.6483993580      -3.4826490155      -7.2187490149      -0.8340000000
    -15.7523052434      -3.7712849880      -8.1466021452       0.4170000000
    -14.7633170331      -3.0660025559      -7.2458469401       0.4170000000
    -25.1130000000     -15.3660000000      -0.8340000000      -0.8340000000
    -25.4190000000     -15.7920000000      -1.6350000000       0.4170000000
    -25.1990000000     -16.0380000000      -0.1570000000       0.4170000000
     -7.6525025253     -19.7122063925     -16.1806564216      -0.8340000000
     -6.8972857305     -19.3209547238     -16.6420845571       0.4170000000
     -7.3549408332     -19.6787383695     -15.2439966954       0.4170000000
    -11.2587732709      -0.3872237544      -4.7469311105      -0.8340000000
    -10.5836041895      -0.9320049145      -5.1950687788       0.4170000000
    -11.9070625210      -1.0736577481      -4.4892076065       0.4170000000
      1.5232145767      -0.3954219295     -10.8272097484      -0.8340000000
      0.6086027995      -0.3982951240     -11.1928239312       0.4170000000
      1.6798721557       0.5793670935     -10.8427298656       0.4170000000
     -5.1287850687       5.6754897172      -3.1341148798      -0.8340000000
     -4.2966792317       5.1811873005      -2.9872984593       0.4170000000
     -5.7803059200       4.9451285968      -3.0539923409       0.4170000000
      5.3170000000       0.2840000000     -16.9880000000      -0.8340000000
      4.5690000000       0.8710000000     -17.1010000000       0.4170000000
      5.8920000000       0.7440000000     -16.3760000000       0.4170000000
     -9.8520000000       8.8440000000       1.8950000000      -0.8340000000
    -10.7200000000       9.0520000000       2.2430000000       0.4170000000
     -9.8490000000       7.8910000000       1.8120000000       0.4170000000
    -18.8465655752     -22.1459401656      -7.9884298097      -0.8340000000
    -18.8936850103     -21.5712564683      -7.2243943086       0.4170000000
    -19.7591765153     -22.3531620419      -8.1895074214       0.4170000000
      0.9530000000      -4.3560000000      11.4070000000      -0.8340000000
      0.8480000000      -3.4320000000      11.1790000000       0.4170000000
      1.6480000000      -4.3630000000      12.0650000000       0.4170000000
     -0.7845356013       0.8610342386       1.1777407415      -0.8340000000
     -1.0356936449       0.8126488313       2.1293792534       0.4170000000
     -1.3548377019       1.6203430674       0.9058672515       0.4170000000
    -19.4450000000     -19.8340000000     -18.6330000000      -0.8340000000
    -18.9380000000     -19.1450000000     -18.2030000000       0.4170000000
    -20.3540000000     -19.6420000000     -18.4030000000       0.4170000000
    -16.8475848340     -16.8043540228     -10.7446032314      -0.8340000000
    -16.5573567152     -17.7343048617     -10.8175787529       0.4170000000
    -16.1730290311     -16.3324646230     -11.2781910091       0.4170000000
     -4.2228598467       0.3867808341     -10.1605741765      -0.8340000000
     -5.1536400244       0.1167915581     -10.2854407597       0.4170000000
     -4.2869548753       1.3273682926     -10.4139166202       0.4170000000
    -22.3159864250      -6.6314823048      -7.8072877943      -0.8340000000
    -21.9693692064      -6.5543892988      -6.8986324807       0.4170000000
    -21.5375790370      -7.0125328885      -8.2614228040       0.4170000000
     10.4640000000      -3.2980000000     -17.0380000000      -0.8340000000
      9.9960000000      -2.6400000000     -16.5240000000       0.4170000000
      9.8830000000      -4.0590000000     -17.0390000000       0.4170000000
    -14.1794918541     -15.5198161130       5.0541637759      -0.8340000000
    -14.6534640696     -15.8641523753       4.2731467981       0.4170000000
    -13.8142400395     -14.6957599897       4.6732959154       0.4170000000
     -7.4919480246       4.9266093386      -6.2906770101      -0.8340000000
     -6.9373212373       4.1142816308      -6.2580730255       0.4170000000
     -8.0233663706       4.8136618707      -5.4752405511       0.4170000000
      0.4480000000     -27.6550000000       4.3590000000      -0.8340000000
      0.0130000000     -28.5030000000       4.2820000000       0.4170000000
      0.1600000000     -27.1660000000       3.5880000000       0.4170000000
     -0.8670000000      -3.3690000000     -22.8590000000      -0.8340000000
     -0.3210000000      -2.8350000000     -23.4360000000       0.4170000000
     -0.3130000000      -4.1140000000     -22.6260000000       0.4170000000
     -5.3398645836      -4.8690966884       3.4520930037      -0.8340000000
     -6.2369765197      -5.1694048563       3.1839204268       0.4170000000
     -5.0346006343      -4.5051970625       2.5903747071       0.4170000000
    -21.3850000000      -1.0290000000       5.9340000000      -0.8340000000
    -20.4790000000      -0.9550000000       5.6330000000       0.4170000000
    -21.3280000000      -0.9590000000       6.8870000000       0.4170000000
      1.7595026284     -18.5767018513      -2.3543526171      -0.8340000000
      2.0120057160     -18.8195784212      -3.2661195552       0.4170000000
      0.8010003780     -18.7515653732      -2.3992986624       0.4170000000
     -1.0837132426     -10.6084318741       6.6145534777      -0.8340000000
     -0.7961380846     -10.4585027936       5.6896984762       0.4170000000
     -1.0363801730     -11.5856435588       6.6663332731       0.4170000000
      9.9160000000     -17.2030000000     -17.4370000000      -0.8340000000
     10.5000000000     -17.1530000000     -16.6800000000       0.4170000000
     10.4710000000     -17.5260000000     -18.1470000000       0.4170000000
      0.6838186267     -10.2446958729      -7.7226332524      -0.8340000000
     -0.2074149956     -10.6585468315      -7.6712001886       0.4170000000
      1.0735969182     -10.5417497960      -6.8735247613       0.4170000000
    -13.2997528096      -3.8227920980      -0.3943563100      -0.8340000000
    -13.7151240380      -3.2166880805      -1.0321939818       0.4170000000
    -13.4513850233      -3.3381262548       0.4435841278       0.4170000000
      2.5280000000      -0.2490000000       9.9690000000      -0.8340000000
      3.3950000000      -0.6560000000       9.9690000000       0.4170000000
      2.6960000000       0.6730000000       9.7720000000       0.4170000000
      6.5970000000     -12.4080000000      12.0930000000      -0.8340000000
      5.8020000000     -12.6770000000      11.6310000000       0.4170000000
      6.3300000000     -12.3380000000      13.0090000000       0.4170000000
    -22.6540000000      -5.9510000000       3.8400000000      -0.8340000000
    -22.2600000000      -6.6000000000       3.2570000000       0.4170000000
    -22.1030000000      -5.1750000000       3.7420000000       0.4170000000
     10.9000000000     -23.7710000000     -10.1260000000      -0.8340000000
     10.5590000000     -23.1230000000      -9.5100000000       0.4170000000
     11.8490000000     -23.7350000000     -10.0110000000       0.4170000000
    -21.4291189193      -7.9827535928     -12.6368099300      -0.8340000000
    -21.9836317196      -8.5343375353     -13.1886274259       0.4170000000
    -20.5405867208      -8.1400070855     -12.9562057837       0.4170000000
    -19.2122578805     -12.7386140214     -11.7009866886      -0.8340000000
    -19.5799112756     -12.3474008638     -10.8742508852       0.4170000000
    -18.2849630758     -12.4286312339     -11.6037815430       0.4170000000
     -2.8598474550       1.3779909781      -3.6153274666      -0.8340000000
     -2.8965211767       0.8894967011      -4.4667772138       0.4170000000
     -1.9879030378       1.0617387901      -3.2954272544       0.4170000000
     -1.8310000000      -1.0780000000     -21.3540000000      -0.8340000000
     -1.0370000000      -0.5570000000     -21.4780000000       0.4170000000
     -1.7630000000      -1.7770000000     -22.0030000000       0.4170000000
    -19.6120000000     -22.3050000000     -15.9660000000      -0.8340000000
    -18.8090000000     -22.7630000000     -16.2180000000       0.4170000000
    -19.3160000000     -21.4380000000     -15.6900000000       0.4170000000
    -11.9128091663     -21.3583324370     -15.9505981402      -0.8340000000
    -10.9511317658     -21.4340727462     -16.1328905723       0.4170000000
    -12.0356811365     -22.1853880220     -15.4449742121       0.4170000000
     -7.9030000000     -12.4850000000     -22.8610000000      -0.8340000000
     -7.3680000000     -12.7750000000     -23.6010000000       0.4170000000
     -7.3960000000     -12.7330000000     -22.0880000000       0.4170000000
    -15.5891464071      -0.7273941152     -14.6319867331      -0.8340000000
    -14.8449391435      -0.6787248603     -15.2571648335       0.4170000000
    -15.1369984174      -1.1620636665     -13.8842412734       0.4170000000
     -5.0399326513     -24.7273782391       3.0951805489      -0.8340000000
     -5.2125991344     -24.2652778441       2.2453512509       0.4170000000
     -5.9479019812     -24.9732995867       3.3532063268       0.4170000000
      0.3710000000       4.8080000000     -13.5320000000      -0.8340000000
      0.8550000000       5.2820000000     -14.2080000000       0.4170000000
     -0.5490000000       4.9300000000     -13.7650000000       0.4170000000
      4.1653478728      -8.0000587766       1.7545762277      -0.8340000000
      4.7857141083      -7.2989928277       2.0315016718       0.4170000000
      4.3070002987      -8.6676145566       2.4604071861       0.4170000000
    -11.7170000000     -15.1930000000     -22.4150000000      -0.8340000000
    -10.8950000000     -15.6220000000     -22.1770000000       0.4170000000
    -11.4520000000     -14.3420000000     -22.7650000000       0.4170000000
      1.6120000000       1.6970000000       4.6020000000      -0.8340000000
      0.9040000000       2.2290000000       4.2400000000       0.4170000000
      2.3960000000       1.9920000000       4.1390000000       0.4170000000
     -8.3740000000     -28.0310000000      -8.1660000000      -0.8340000000
     -8.5540000000     -28.9650000000      -8.2740000000       0.4170000000
     -8.1760000000     -27.7210000000      -9.0500000000       0.4170000000
      2.5968781177     -14.5568628401      -4.1338662636      -0.8340000000
      1.8051242885     -15.0807737245      -4.4015253226       0.4170000000
      2.9347369559     -15.1215325530      -3.4049377277       0.4170000000
    -25.3650000000      -8.8600000000      -6.2720000000      -0.8340000000
    -25.4420000000      -7.9900000000      -5.8800000000       0.4170000000
    -26.1970000000      -8.9930000000      -6.7260000000       0.4170000000
    -19.3960000000     -16.6070000000       9.0060000000      -0.8340000000
    -19.8660000000     -15.9520000000       9.5210000000       0.4170000000
    -19.2530000000     -17.3330000000       9.6130000000       0.4170000000
      2.5597749413     -11.7211711221     -16.5893233171      -0.8340000000
      3.2629814135     -11.5383110734     -17.2473927124       0.4170000000
      2.7667181429     -11.0931370751     -15.8790061249       0.4170000000
      7.6671196756     -18.8448332850     -12.1521403578      -0.8340000000
      8.3326434596     -19.5557118680     -12.1360312616       0.4170000000
      7.3534210413     -18.8478518661     -11.2192894641       0.4170000000
    -11.5604815658      -4.6411797820     -19.2430078162      -0.8340000000
    -12.0415131852      -5.3477908569     -18.8122628685       0.4170000000
    -12.1276220530      -3.8753218279     -19.1533133240       0.4170000000
    -15.9736003294      -7.1390135229     -16.9175043257      -0.8340000000
    -16.6101809948      -6.4658006838     -17.2076101916       0.4170000000