%NprocShared=16
%chk=gaussian.chk
%mem=1gb
#P B3LYP/cc-pVDZ EmpiricalDispersion=GD3
scf(conver=8) iop(4/5=100) nosymm
Charge Force Prop=(Field,Read) pop=mk

Gaussian run for QMMM in genesis

-1 1
 P        -5.1169990754     -10.6315499671      -5.3734673580
 O        -5.7305076675     -10.8216838507      -3.8478571082
 H        -5.3925418538     -11.6271497985      -3.4029023606
 O        -5.9027432173      -9.2584090276      -5.7772152444
 H        -6.8787936816      -9.3444382267      -5.6525560915
 O        -3.6203032690     -10.2964011748      -5.3843345603
 O        -5.5602494271     -11.8104614629      -6.2719214425
 
     -2.7006264441     -14.6195943275     -20.9657095686      -0.8340000000
     -2.7343083145     -14.8192449865     -20.0117087084       0.4170000000
     -1.7826948519     -14.8636137892     -21.1791179541       0.4170000000
      1.0707255934      -4.2279131673     -12.8096909878      -0.8340000000
      0.7765479751      -3.3700338370     -13.1813735369       0.4170000000
      1.9624744640      -3.9806456829     -12.5142953447       0.4170000000
      5.0563321754     -20.5447760511      -5.6893914025      -0.8340000000
      4.2512853288     -20.3409514779      -6.1654029130       0.4170000000
      5.5002703217     -19.7018328849      -5.5966682619       0.4170000000
    -19.6476397159     -15.7540191758      -0.6708228704      -0.8340000000
    -19.9607032983     -15.2037265925       0.0759955116       0.4170000000
    -19.3544451003     -16.5601604415      -0.1916811178       0.4170000000
     -5.5930000000      -9.4960000000      11.9470000000      -0.8340000000
     -4.8730000000      -9.3010000000      11.3470000000       0.4170000000
     -5.2990000000     -10.2650000000      12.4340000000       0.4170000000
    -17.9987136994     -15.6862375980       2.1041880773      -0.8340000000
    -18.8161575191     -16.2111318812       2.2120848897       0.4170000000
    -17.3229576037     -16.3403144177       2.3457968818       0.4170000000
    -20.5030000000      -8.7000000000     -18.3330000000      -0.8340000000
    -20.1000000000      -7.9550000000     -18.7790000000       0.4170000000
    -19.9410000000      -9.4440000000     -18.5520000000       0.4170000000
    -21.7340000000     -19.2730000000      -3.2290000000      -0.8340000000
    -21.4420000000     -19.8120000000      -3.9640000000       0.4170000000
    -21.3640000000     -18.4080000000      -3.4020000000       0.4170000000
     -7.2670043201       2.3678950489       5.3258669700      -0.8340000000
     -7.5201530891       3.0102608322       4.6419810875       0.4170000000
     -7.7473240884       2.7046969472       6.1096300539       0.4170000000
    -20.7830000000     -19.9770000000      -0.1600000000      -0.8340000000
    -21.3390000000     -19.8850000000      -0.9340000000       0.4170000000
    -20.1610000000     -20.6670000000      -0.3920000000       0.4170000000
     -1.4605963599     -18.7684373100       3.7936362823      -0.8340000000
     -1.3247265469     -19.6729263193       3.4434035459       0.4170000000
     -2.2160850780     -18.9561431216       4.3848404787       0.4170000000
    -20.9745504198     -14.2478141980       1.2301243734      -0.8340000000
    -20.7432956782     -13.3228408473       1.4465567116       0.4170000000
    -21.5752208138     -14.0971592600       0.4695669275       0.4170000000
    -22.5140000000     -16.5510000000       6.1750000000      -0.8340000000
    -22.8920000000     -16.5770000000       7.0540000000       0.4170000000
    -22.7990000000     -17.3680000000       5.7660000000       0.4170000000
     -4.0853934160     -13.3052151179       9.3628266573      -0.8340000000
     -4.4598671433     -12.8242945308      10.1318814348       0.4170000000
     -3.5136133976     -12.5911614609       9.0103809010       0.4170000000
     -3.3686824418     -21.5083922127       0.8313289862      -0.8340000000
     -3.8981358126     -22.3351953277       0.8035902111       0.4170000000
     -4.0609866480     -20.8601921734       0.5882900996       0.4170000000
     -9.0865604003     -24.0937787443     -11.3744692664      -0.8340000000
     -8.8467536394     -23.3139711421     -10.8304230472       0.4170000000
     -8.4409692974     -24.7370389387     -11.0214185833       0.4170000000
    -19.2524610041     -13.3538230775     -14.3814507818      -0.8340000000
    -19.2535608065     -13.1085188193     -13.4278257286       0.4170000000
    -20.2050458279     -13.3599618659     -14.5822051257       0.4170000000
    -17.7510000000       1.0020000000     -15.1100000000      -0.8340000000
    -17.1890000000       0.2420000000     -14.9580000000       0.4170000000
    -17.2010000000       1.7550000000     -14.8950000000       0.4170000000
     -3.6971221385      -6.9837610270       4.1003697968      -0.8340000000
     -4.3072432484      -6.2654163176       3.8364542427       0.4170000000
     -3.6506974773      -6.8045943731       5.0690341937       0.4170000000
      5.9960000000     -25.0310000000      -6.8440000000      -0.8340000000
      6.2450000000     -25.2160000000      -7.7490000000       0.4170000000
      6.5630000000     -25.5950000000      -6.3180000000       0.4170000000
    -18.1299296480     -13.1286789426       3.0104315153      -0.8340000000
    -18.1648459338     -14.0539051953       2.6811581648       0.4170000000
    -19.0574905283     -12.9980929789       3.3056695242       0.4170000000
      5.1020000000     -24.2100000000     -13.9410000000      -0.8340000000
      4.2860000000     -24.5860000000     -14.2730000000       0.4170000000
      5.5770000000     -24.9540000000     -13.5710000000       0.4170000000
    -11.7830000000       2.5430000000     -17.5750000000      -0.8340000000
    -11.3150000000       1.9990000000     -18.2080000000       0.4170000000
    -11.5370000000       2.1850000000     -16.7220000000       0.4170000000
      6.7990000000     -21.9970000000       4.9320000000      -0.8340000000
      6.5480000000     -21.0880000000       5.0980000000       0.4170000000
      7.1110000000     -21.9980000000       4.0270000000       0.4170000000
      5.2824285510     -13.1787359245       2.4967828911      -0.8340000000
      6.1944282601     -13.0263914026       2.1662941116       0.4170000000
      5.4573404238     -13.5137025499       3.4015148304       0.4170000000
    -11.1612419067     -27.0983249073      -7.6161209141      -0.8340000000
    -11.3180234598     -27.2457686431      -8.5488115001       0.4170000000
    -10.3485385789     -27.5693218168      -7.4319822378       0.4170000000
    -25.2000000000     -16.9990000000       1.4350000000      -0.8340000000
    -25.5770000000     -17.8140000000       1.1020000000       0.4170000000
    -24.2810000000     -17.2090000000       1.5990000000       0.4170000000
     10.6865752302      -5.7222645591      -6.7424224071      -0.8340000000
      9.8824205676      -5.9116317934      -6.2127885678       0.4170000000
     10.6115822369      -6.3857904411      -7.4556588141       0.4170000000
     -9.3162535362     -12.3280880305       5.8821226880      -0.8340000000
     -9.4630559796     -12.6344840182       4.9619227249       0.4170000000
     -9.5426066376     -11.3791485019       5.7857056294       0.4170000000
    -14.2442372519      -3.7201841670     -19.2742471312      -0.8340000000
    -14.3202557208      -4.0073493347     -20.1841862494       0.4170000000
    -14.3790985740      -2.7731840338     -19.3093898614       0.4170000000
     -8.2728991630     -14.5065400835     -19.5737771077      -0.8340000000
     -7.6584605872     -14.2598011972     -20.2865195355       0.4170000000
     -7.8293968395     -15.3222449348     -19.2390942216       0.4170000000
     -4.1330000000       5.8640000000       5.6920000000      -0.8340000000
     -3.4210000000       5.9530000000       6.3250000000       0.4170000000
     -4.1930000000       4.9220000000       5.5300000000       0.4170000000
    -15.0288322050     -11.6413736950       1.7432475079      -0.8340000000
    -14.6495549897     -10.8610915200       2.1900816997       0.4170000000
    -14.2078549052     -12.0522140345       1.4025914201       0.4170000000
     -5.3467675064     -15.8511026673      -7.9938223376      -0.8340000000
     -4.6373463268     -16.4021518577      -8.3481395815       0.4170000000
     -4.8862701944     -14.9858702994      -7.9231490598       0.4170000000
    -17.8327372320      -4.6127232833     -15.1996543388      -0.8340000000
    -18.2982415426      -5.4213615481     -15.4701563159       0.4170000000
    -18.5067441755      -3.9308697231     -15.4046220761       0.4170000000
      5.7271330552     -16.8384198330      -8.1278022758      -0.8340000000
      6.3682442130     -16.1329561800      -7.8785433363       0.4170000000
      5.0146591995     -16.5959154020      -7.5084574701       0.4170000000
    -11.9690000000     -26.2380000000     -16.1010000000      -0.8340000000
    -12.9220000000     -26.3080000000     -16.0580000000       0.4170000000
    -11.6790000000     -27.0940000000     -16.4170000000       0.4170000000
    -13.7270000000       7.0930000000     -10.9470000000      -0.8340000000
    -13.7370000000       7.9660000000     -11.3390000000       0.4170000000
    -12.8890000000       6.7180000000     -11.2160000000       0.4170000000
      7.5890000000       1.3110000000     -15.5450000000      -0.8340000000
      8.1750000000       1.4020000000     -14.7940000000       0.4170000000
      7.2870000000       2.2020000000     -15.7240000000       0.4170000000
    -17.5940000000     -10.4620000000      10.7710000000      -0.8340000000
    -17.9620000000     -10.2380000000      11.6250000000       0.4170000000
    -16.8110000000      -9.9170000000      10.6960000000       0.4170000000
     -4.4890000000      -0.0580000000     -22.2840000000      -0.8340000000
     -3.9370000000      -0.8150000000     -22.4830000000       0.4170000000
     -5.0980000000      -0.3750000000     -21.6170000000       0.4170000000
    -21.8117400430      -3.6425461110      -5.1270707366      -0.8340000000
    -22.6921551061      -3.8736075223      -5.4232324842       0.4170000000
    -21.2868318602      -4.4235139881      -5.3025484125       0.4170000000
    -18.7740000000      -1.1270000000     -16.7720000000      -0.8340000000
    -19.3860000000      -1.7410000000     -16.3670000000       0.4170000000
    -18.4860000000      -0.5650000000     -16.0530000000       0.4170000000
    -16.1154933867     -23.4796703124      -3.4880648355      -0.8340000000
    -15.5352066458     -22.8762242570      -3.0240044983       0.4170000000
    -15.5676785812     -24.2413862079      -3.6775896978       0.4170000000
      9.5420000000     -21.0270000000     -12.6220000000      -0.8340000000
     10.3070000000     -20.4540000000     -12.5650000000       0.4170000000
      9.6990000000     -21.5590000000     -13.4020000000       0.4170000000
    -12.0886544158      -7.4029843310       3.7375234389      -0.8340000000
    -11.2153529624      -7.0006810093       3.9478663231       0.4170000000
    -12.3862324673      -7.6212117948       4.6563418290       0.4170000000
      9.4390000000      -5.1810000000       4.5990000000      -0.8340000000
      9.4310000000      -5.6600000000       3.7710000000       0.4170000000
      9.3890000000      -5.8610000000       5.2710000000       0.4170000000
      0.9793837386     -16.8269196218       7.3066873174      -0.8340000000
      0.0883247232     -16.9490237834       6.9249456540       0.4170000000
      1.1823461288     -17.7661538152       7.5073705684       0.4170000000
     -2.3670000000     -28.1780000000      -8.6920000000      -0.8340000000
     -2.3860000000     -28.7870000000      -9.4300000000       0.4170000000
     -2.0390000000     -28.6990000000      -7.9590000000       0.4170000000
     -3.8402253345      -6.0327106027       6.6128903598      -0.8340000000
     -4.4573161271      -5.2956335343       6.7646835255       0.4170000000
     -3.5140790323      -6.2232720169       7.5105539458       0.4170000000
    -13.4680000000     -12.0270000000     -23.1910000000      -0.8340000000
    -14.0470000000     -12.6070000000     -22.6960000000       0.4170000000
    -12.6100000000     -12.4490000000     -23.1460000000       0.4170000000
     -1.8337413715     -11.1203897836      -7.1798739338      -0.8340000000
     -1.6882074570     -12.0788453507      -7.0374637801       0.4170000000
     -2.4735420257     -10.8991141576      -6.4593526238       0.4170000000
     -6.0920297845     -17.2244041496     -14.2355013163      -0.8340000000
     -6.6727245182     -16.4650182423     -14.4300121249       0.4170000000
     -6.7143864537     -17.9479282639     -14.0274037870       0.4170000000
    -18.4507170383      -7.0769221169     -11.2731038122      -0.8340000000
    -18.5600363408      -7.5183238468     -12.1408712608       0.4170000000
    -18.2145925687      -6.1711762361     -11.5754166429       0.4170000000
    -10.6208126646       0.4826608826      -9.4089011514      -0.8340000000
    -10.2255414575       1.0042691843      -8.6791466325       0.4170000000
     -9.9624310075      -0.2378607681      -9.4745803516       0.4170000000
    -21.7215218462     -17.6253326736      -8.9394150726      -0.8340000000
    -20.7799433391     -17.8880711121      -8.9538808890       0.4170000000
    -21.6480874852     -16.6681963688      -8.7703091963       0.4170000000
     -5.1458689166     -23.5866923768       0.6189515690      -0.8340000000
     -4.9054057829     -24.4281021621       0.1752353431       0.4170000000
     -5.7939337078     -23.1991697285      -0.0017457502       0.4170000000
    -11.8880000000     -15.4980000000      11.7450000000      -0.8340000000
    -12.7380000000     -15.5450000000      11.3080000000       0.4170000000
    -11.7160000000     -14.5610000000      11.8370000000       0.4170000000
      9.7231600582     -12.1590376387      -7.4831983663      -0.8340000000
      9.7329854074     -12.9539577068      -6.9168450566       0.4170000000
     10.2388926333     -11.5332819600      -6.9244560822       0.4170000000
     -2.9140415668     -20.8795391240     -13.3920201669      -0.8340000000
     -1.9647667925     -21.0584291979     -13.2139209142       0.4170000000
     -2.8448549418     -19.9392956916     -13.6745990794       0.4170000000
     -0.0800000000       2.7290000000     -16.4170000000      -0.8340000000
      0.8110000000       2.4130000000     -16.5680000000       0.4170000000
     -0.0200000000       3.2370000000     -15.6080000000       0.4170000000
    -15.6310108031      -9.2541645110      -7.9869157579      -0.8340000000
    -14.8690616579      -9.8681659103      -8.0696113624       0.4170000000
    -16.2480409953      -9.8143453417      -7.4616528806       0.4170000000
     -9.8104776513     -12.9418425407       3.2432800780      -0.8340000000
    -10.5132058872     -12.2587891253       3.2732130295       0.4170000000
     -9.4114578449     -12.7349038913       2.3722779590       0.4170000000
     -6.9900000000       8.5940000000     -10.5640000000      -0.8340000000
     -7.2530000000       7.7260000000     -10.2590000000       0.4170000000
     -7.7750000000       8.9510000000     -10.9790000000       0.4170000000
     -9.4892087546     -16.1653517321      -4.6764598872      -0.8340000000
     -9.0990260524     -16.4290660809      -3.8166658093       0.4170000000
     -8.6788525065     -15.9068320394      -5.1581993344       0.4170000000
     -5.6390000000     -16.7630000000      12.5490000000      -0.8340000000
     -5.4510000000     -16.0280000000      11.9660000000       0.4170000000
     -4.7780000000     -17.0980000000      12.7990000000       0.4170000000
      7.9770000000      -3.4280000000       7.8400000000      -0.8340000000
      8.6330000000      -2.7740000000       7.6000000000       0.4170000000
      7.5300000000      -3.6330000000       7.0190000000       0.4170000000
    -17.1575283617     -10.1818609365       6.0135859940      -0.8340000000
    -16.9910740014     -11.1051471229       5.7309746592       0.4170000000
    -16.7676190733      -9.6578095789       5.2834627885       0.4170000000
    -13.8665911407      -9.3088220687       2.8361052892      -0.8340000000
    -14.6406716294      -9.0745736422       3.4035976287       0.4170000000
    -13.2671305405      -8.5693845350       3.0699167875       0.4170000000
      9.0640000000     -11.5730000000       5.2100000000      -0.8340000000
      9.2700000000     -11.9060000000       6.0840000000       0.4170000000
      9.2490000000     -12.3070000000       4.6240000000       0.4170000000
    -18.5364749325     -16.0521667755     -14.6794544814      -0.8340000000
    -18.6756668874     -15.0808053524     -14.6328686548       0.4170000000
    -19.3380592830     -16.3627218711     -15.1489931707       0.4170000000
     -4.9460000000       7.1710000000       1.2470000000      -0.8340000000
     -5.0380000000       7.0520000000       2.1920000000       0.4170000000
     -5.6590000000       7.7640000000       1.0100000000       0.4170000000
     -1.5472154668     -17.3117897159       6.2531872446      -0.8340000000
     -1.2440203463     -17.4977844829       5.3453717031       0.4170000000
     -2.2311309757     -18.0064871034       6.3211854889       0.4170000000
     10.1910000000     -18.5640000000      -8.9970000000      -0.8340000000
     10.2560000000     -19.2990000000      -9.6060000000       0.4170000000
      9.6800000000     -17.9060000000      -9.4680000000       0.4170000000
     -4.7980000000      -4.5460000000      14.4130000000      -0.8340000000
     -5.0430000000      -5.0620000000      15.1810000000       0.4170000000
     -4.5650000000      -5.1970000000      13.7510000000       0.4170000000
     -3.9016900874      -8.8039769599     -21.7840183524      -0.8340000000
     -3.5666888600      -9.4161053268     -21.1288047384       0.4170000000
     -3.2648645573      -8.0894065461     -21.7926327487       0.4170000000
    -25.9690000000     -18.4970000000      -1.7330000000      -0.8340000000
    -26.2680000000     -18.2900000000      -2.6180000000       0.4170000000
    -25.1230000000     -18.0560000000      -1.6570000000       0.4170000000
    -15.6436330826      -3.4837224535      -7.2165261286      -0.8340000000
    -15.7491442419      -3.7710135283      -8.1446968099       0.4170000000
    -14.7577548280      -3.0685806621      -7.2440665477       0.4170000000
    -25.1130000000     -15.3660000000      -0.8340000000      -0.8340000000
    -25.4190000000     -15.7920000000      -1.6350000000       0.4170000000
    -25.1990000000     -16.0380000000      -0.1570000000       0.4170000000
     -7.6598673541     -19.7100750931     -16.1911969877      -0.8340000000
     -6.9067019272     -19.3160016503     -16.6535664194       0.4170000000
     -7.3594236231     -19.6806530320     -15.2553432063       0.4170000000
    -11.2557678299      -0.3849278572      -4.7443477103      -0.8340000000
    -10.5793073752      -0.9268516031      -5.1939735317       0.4170000000
    -11.9019717253      -1.0743085480      -4.4894249973       0.4170000000
      1.5232036856      -0.3954788220     -10.8285103417      -0.8340000000
      0.6086161912      -0.3982882017     -11.1942429055       0.4170000000
      1.6794131235       0.5794192918     -10.8427827190       0.4170000000
     -5.1278752198       5.6764619989      -3.1344966613      -0.8340000000
     -4.2957981918       5.1820954087      -2.9875231439       0.4170000000
     -5.7793966411       4.9460953669      -3.0548359077       0.4170000000
      5.3170000000       0.2840000000     -16.9880000000      -0.8340000000
      4.5690000000       0.8710000000     -17.1010000000       0.4170000000
      5.8920000000       0.7440000000     -16.3760000000       0.4170000000
     -9.8520000000       8.8440000000       1.8950000000      -0.8340000000
    -10.7200000000       9.0520000000       2.2430000000       0.4170000000
     -9.8490000000       7.8910000000       1.8120000000       0.4170000000
    -18.8465655752     -22.1459401656      -7.9884298097      -0.8340000000
    -18.8936850103     -21.5712564683      -7.2243943086       0.4170000000
    -19.7591765153     -22.3531620419      -8.1895074214       0.4170000000
      0.9530000000      -4.3560000000      11.4070000000      -0.8340000000
      0.8480000000      -3.4320000000      11.1790000000       0.4170000000
      1.6480000000      -4.3630000000      12.0650000000       0.4170000000
     -0.7827319144       0.8605129360       1.1764430640      -0.8340000000
     -1.0357691162       0.8084801698       2.1274437214       0.4170000000
     -1.3529692139       1.6204099610       0.9061883663       0.4170000000
    -19.4450000000     -19.8340000000     -18.6330000000      -0.8340000000
    -18.9380000000     -19.1450000000     -18.2030000000       0.4170000000
    -20.3540000000     -19.6420000000     -18.4030000000       0.4170000000
    -16.8412369502     -16.8030173381     -10.7492319791      -0.8340000000
    -16.5535010013     -17.7334112260     -10.8248253977       0.4170000000
    -16.1645418648     -16.3310557967     -11.2798225840       0.4170000000
     -4.2222711113       0.3870500774     -10.1606737060      -0.8340000000
     -5.1529509239       0.1166058375     -10.2851526453       0.4170000000
     -4.2869033717       1.3277660750     -10.4134673071       0.4170000000
    -22.3104966107      -6.6308861098      -7.8048317717      -0.8340000000
    -21.9645786137      -6.5529512759      -6.8959021897       0.4170000000
    -21.5307957342      -7.0102840819      -8.2581819917       0.4170000000
     10.4640000000      -3.2980000000     -17.0380000000      -0.8340000000
      9.9960000000      -2.6400000000     -16.5240000000       0.4170000000
      9.8830000000      -4.0590000000     -17.0390000000       0.4170000000
    -14.1741183967     -15.4845503371       5.0585818331      -0.8340000000
    -14.6564078734     -15.8411622615       4.2883819488       0.4170000000
    -13.7842444711     -14.6856550182       4.6487257295       0.4170000000
     -7.4919642787       4.9288252978      -6.2906843142      -0.8340000000
     -6.9361549288       4.1172850067      -6.2589402651       0.4170000000
     -8.0231385252       4.8143015574      -5.4753189932       0.4170000000
      0.4480000000     -27.6550000000       4.3590000000      -0.8340000000
      0.0130000000     -28.5030000000       4.2820000000       0.4170000000
      0.1600000000     -27.1660000000       3.5880000000       0.4170000000
     -0.8670000000      -3.3690000000     -22.8590000000      -0.8340000000
     -0.3210000000      -2.8350000000     -23.4360000000       0.4170000000
     -0.3130000000      -4.1140000000     -22.6260000000       0.4170000000
     -5.3314960632      -4.8699102949       3.4506392432      -0.8340000000
     -6.2277266284      -5.1705189205       3.1799726632       0.4170000000
     -5.0255623408      -4.5034317034       2.5902704865       0.4170000000
    -21.3850000000      -1.0290000000       5.9340000000      -0.8340000000
    -20.4790000000      -0.9550000000       5.6330000000       0.4170000000
    -21.3280000000      -0.9590000000       6.8870000000       0.4170000000
      1.7616965297     -18.5875071338      -2.3563724410      -0.8340000000
      2.0147109985     -18.8294304273      -3.2682390455       0.4170000000
      0.8038053022     -18.7658864543      -2.4013362942       0.4170000000
     -1.0824684808     -10.6077663990       6.6230114087      -0.8340000000
     -0.7911941602     -10.4575871796       5.6992652634       0.4170000000
     -1.0367119983     -11.5850800329       6.6741401272       0.4170000000
      9.9160000000     -17.2030000000     -17.4370000000      -0.8340000000
     10.5000000000     -17.1530000000     -16.6800000000       0.4170000000
     10.4710000000     -17.5260000000     -18.1470000000       0.4170000000
      0.7043265009     -10.2249249063      -7.7075120999      -0.8340000000
     -0.1871361225     -10.6331479533      -7.6251872655       0.4170000000
      1.1129873214     -10.5180590184      -6.8654024663       0.4170000000
    -13.2946984275      -3.8294780366      -0.4078809147      -0.8340000000
    -13.7157805854      -3.2293403184      -1.0477802110       0.4170000000
    -13.4371805903      -3.3353780017       0.4262551648       0.4170000000
      2.5280000000      -0.2490000000       9.9690000000      -0.8340000000
      3.3950000000      -0.6560000000       9.9690000000       0.4170000000
      2.6960000000       0.6730000000       9.7720000000       0.4170000000
      6.5970000000     -12.4080000000      12.0930000000      -0.8340000000
      5.8020000000     -12.6770000000      11.6310000000       0.4170000000
      6.3300000000     -12.3380000000      13.0090000000       0.4170000000
    -22.6540000000      -5.9510000000       3.8400000000      -0.8340000000
    -22.2600000000      -6.6000000000       3.2570000000       0.4170000000
    -22.1030000000      -5.1750000000       3.7420000000       0.4170000000
     10.9000000000     -23.7710000000     -10.1260000000      -0.8340000000
     10.5590000000     -23.1230000000      -9.5100000000       0.4170000000
     11.8490000000     -23.7350000000     -10.0110000000       0.4170000000
    -21.4291189193      -7.9827535928     -12.6368099300      -0.8340000000
    -21.9836317196      -8.5343375353     -13.1886274259       0.4170000000
    -20.5405867208      -8.1400070855     -12.9562057837       0.4170000000
    -19.2089278533     -12.7352363396     -11.7015167277      -0.8340000000
    -19.5795027020     -12.3434299822     -10.8763751013       0.4170000000
    -18.2819177386     -12.4253623481     -11.6012426577       0.4170000000
     -2.8548817931       1.3799838888      -3.6158399561      -0.8340000000
     -2.8919333794       0.8906277949      -4.4667303084       0.4170000000
     -1.9824514294       1.0648411115      -3.2962805263       0.4170000000
     -1.8310000000      -1.0780000000     -21.3540000000      -0.8340000000
     -1.0370000000      -0.5570000000     -21.4780000000       0.4170000000
     -1.7630000000      -1.7770000000     -22.0030000000       0.4170000000
    -19.6120000000     -22.3050000000     -15.9660000000      -0.8340000000
    -18.8090000000     -22.7630000000     -16.2180000000       0.4170000000
    -19.3160000000     -21.4380000000     -15.6900000000       0.4170000000
    -11.9158123907     -21.3606829593     -15.9500217098      -0.8340000000
    -10.9542203141     -21.4371312356     -16.1326015535       0.4170000000
    -12.0390911688     -22.1877371654     -15.4445296903       0.4170000000
     -7.9030000000     -12.4850000000     -22.8610000000      -0.8340000000
     -7.3680000000     -12.7750000000     -23.6010000000       0.4170000000
     -7.3960000000     -12.7330000000     -22.0880000000       0.4170000000
    -15.5939541396      -0.7307293936     -14.6288833739      -0.8340000000
    -14.8492624003      -0.6846879864     -15.2536833796       0.4170000000
    -15.1426134292      -1.1633811641     -13.8794235718       0.4170000000
     -5.0389028343     -24.7258754039       3.0943595988      -0.8340000000
     -5.2112038346     -24.2642060179       2.2442105545       0.4170000000
     -5.9469891115     -24.9713698133       3.3523211031       0.4170000000
      0.3710000000       4.8080000000     -13.5320000000      -0.8340000000
      0.8550000000       5.2820000000     -14.2080000000       0.4170000000
     -0.5490000000       4.9300000000     -13.7650000000       0.4170000000
      4.1719580001      -8.0055597587       1.7568482682      -0.8340000000
      4.7954567823      -7.3050903347       2.0284402438       0.4170000000
      4.3174849194      -8.6728346321       2.4620425051       0.4170000000
    -11.7170000000     -15.1930000000     -22.4150000000      -0.8340000000
    -10.8950000000     -15.6220000000     -22.1770000000       0.4170000000
    -11.4520000000     -14.3420000000     -22.7650000000       0.4170000000
      1.6120000000       1.6970000000       4.6020000000      -0.8340000000
      0.9040000000       2.2290000000       4.2400000000       0.4170000000
      2.3960000000       1.9920000000       4.1390000000       0.4170000000
     -8.3740000000     -28.0310000000      -8.1660000000      -0.8340000000
     -8.5540000000     -28.9650000000      -8.2740000000       0.4170000000
     -8.1760000000     -27.7210000000      -9.0500000000       0.4170000000
      2.6064741479     -14.5786455803      -4.1368736809      -0.8340000000
      1.8054590613     -15.0890579797      -4.4018089073       0.4170000000
      2.9355479210     -15.1453907439      -3.4054373127       0.4170000000
    -25.3650000000      -8.8600000000      -6.2720000000      -0.8340000000
    -25.4420000000      -7.9900000000      -5.8800000000       0.4170000000
    -26.1970000000      -8.9930000000      -6.7260000000       0.4170000000
    -19.3960000000     -16.6070000000       9.0060000000      -0.8340000000
    -19.8660000000     -15.9520000000       9.5210000000       0.4170000000
    -19.2530000000     -17.3330000000       9.6130000000       0.4170000000
      2.5623681297     -11.7214039953     -16.5890421560      -0.8340000000
      3.2652118704     -11.5381212668     -17.2474228997       0.4170000000
      2.7689496705     -11.0930946170     -15.8788843705       0.4170000000
      7.6668230335     -18.8439192294     -12.1527410685      -0.8340000000
      8.3322350913     -19.5548966676     -12.1355895631       0.4170000000
      7.3524027645     -18.8457521629     -11.2201324825       0.4170000000
    -11.5604815658      -4.6411797820     -19.2430078162      -0.8340000000
    -12.0415131852      -5.3477908569     -18.8122628685       0.4170000000
    -12.1276220530      -3.8753218279     -19.1533133240       0.4170000000
    -15.9689963145      -7.1395691826     -16.9074644353      -0.8340000000
    -16.6048786258      -6.4649207108     -17.1955021976       0.4170000000