%NprocShared=16
%chk=gaussian.chk
%mem=1gb
#P B3LYP/cc-pVDZ EmpiricalDispersion=GD3
scf(conver=8) iop(4/5=100) nosymm
Charge Force Prop=(Field,Read) pop=mk

Gaussian run for QMMM in genesis

-1 1
 P        -5.0317859824     -10.6695579360      -5.3821033975
 O        -5.6347070654     -10.8522628293      -3.8637976216
 H        -5.5578526345     -11.7829910562      -3.5452744495
 O        -5.7634423923      -9.2774539953      -5.7878056554
 H        -6.7524804050      -9.3728548886      -5.6677462298
 O        -3.5212981520     -10.3913720252      -5.4019772125
 O        -5.5487302813     -11.8466081171      -6.2555290767
 
     -2.6965367285     -14.6162329528     -20.9753405785      -0.8340000000
     -2.7276102558     -14.8120548270     -20.0203966247       0.4170000000
     -1.7791623217     -14.8619143597     -21.1895088114       0.4170000000
      1.0797573427      -4.2188342138     -12.8060886162      -0.8340000000
      0.7813003719      -3.3630199844     -13.1793132992       0.4170000000
      1.9684720479      -3.9648124194     -12.5064546208       0.4170000000
      5.0563321754     -20.5447760511      -5.6893914025      -0.8340000000
      4.2512853288     -20.3409514779      -6.1654029130       0.4170000000
      5.5002703217     -19.7018328849      -5.5966682619       0.4170000000
    -19.6426417851     -15.7502988897      -0.6725877662      -0.8340000000
    -19.9562146343     -15.1981359310       0.0723925356       0.4170000000
    -19.3507649989     -16.5559133678      -0.1917472133       0.4170000000
     -5.5930000000      -9.4960000000      11.9470000000      -0.8340000000
     -4.8730000000      -9.3010000000      11.3470000000       0.4170000000
     -5.2990000000     -10.2650000000      12.4340000000       0.4170000000
    -17.9578439255     -15.7281222833       2.1341896858      -0.8340000000
    -18.7915417123     -16.2297241703       2.2247372515       0.4170000000
    -17.3061639988     -16.4168038094       2.3330666320       0.4170000000
    -20.5030000000      -8.7000000000     -18.3330000000      -0.8340000000
    -20.1000000000      -7.9550000000     -18.7790000000       0.4170000000
    -19.9410000000      -9.4440000000     -18.5520000000       0.4170000000
    -21.7340000000     -19.2730000000      -3.2290000000      -0.8340000000
    -21.4420000000     -19.8120000000      -3.9640000000       0.4170000000
    -21.3640000000     -18.4080000000      -3.4020000000       0.4170000000
     -7.2651385440       2.3632434182       5.3324824300      -0.8340000000
     -7.5203605728       3.0067559258       4.6506116379       0.4170000000
     -7.7447680381       2.6977383295       6.1178071658       0.4170000000
    -20.7830000000     -19.9770000000      -0.1600000000      -0.8340000000
    -21.3390000000     -19.8850000000      -0.9340000000       0.4170000000
    -20.1610000000     -20.6670000000      -0.3920000000       0.4170000000
     -1.4496697898     -18.7807987906       3.8069546472      -0.8340000000
     -1.3199084384     -19.6856355513       3.4550607115       0.4170000000
     -2.2066563073     -18.9642586516       4.3977776338       0.4170000000
    -20.9677927971     -14.2423730042       1.2259326365      -0.8340000000
    -20.7389541525     -13.3146422860       1.4335261535       0.4170000000
    -21.5715636370     -14.0990667267       0.4662745920       0.4170000000
    -22.5140000000     -16.5510000000       6.1750000000      -0.8340000000
    -22.8920000000     -16.5770000000       7.0540000000       0.4170000000
    -22.7990000000     -17.3680000000       5.7660000000       0.4170000000
     -4.0717443605     -13.3133483623       9.3743288303      -0.8340000000
     -4.4519775855     -12.8293416110      10.1386174678       0.4170000000
     -3.5051347980     -12.5973715047       9.0178179323       0.4170000000
     -3.3599662348     -21.5271602436       0.8275133025      -0.8340000000
     -3.8901084311     -22.3535051723       0.8024195069       0.4170000000
     -4.0537386181     -20.8789273562       0.5884247568       0.4170000000
     -9.0906258119     -24.0907148308     -11.3696316091      -0.8340000000
     -8.8486053223     -23.3094714648     -10.8287005458       0.4170000000
     -8.4444896551     -24.7336222277     -11.0170071798       0.4170000000
    -19.2528894794     -13.3544612221     -14.3797654242      -0.8340000000
    -19.2533011707     -13.1071170439     -13.4266455064       0.4170000000
    -20.2055547306     -13.3608163177     -14.5800466975       0.4170000000
    -17.7510000000       1.0020000000     -15.1100000000      -0.8340000000
    -17.1890000000       0.2420000000     -14.9580000000       0.4170000000
    -17.2010000000       1.7550000000     -14.8950000000       0.4170000000
     -3.6953459400      -7.0011111117       4.1205988110      -0.8340000000
     -4.2928515541      -6.2738491770       3.8530199300       0.4170000000
     -3.6520160547      -6.8198421241       5.0889770216       0.4170000000
      5.9960000000     -25.0310000000      -6.8440000000      -0.8340000000
      6.2450000000     -25.2160000000      -7.7490000000       0.4170000000
      6.5630000000     -25.5950000000      -6.3180000000       0.4170000000
    -18.1563876908     -13.1405391214       2.9404708946      -0.8340000000
    -18.1721514961     -14.0772946641       2.6438119537       0.4170000000
    -19.0856865408     -13.0143800647       3.2299760663       0.4170000000
      5.1020000000     -24.2100000000     -13.9410000000      -0.8340000000
      4.2860000000     -24.5860000000     -14.2730000000       0.4170000000
      5.5770000000     -24.9540000000     -13.5710000000       0.4170000000
    -11.7830000000       2.5430000000     -17.5750000000      -0.8340000000
    -11.3150000000       1.9990000000     -18.2080000000       0.4170000000
    -11.5370000000       2.1850000000     -16.7220000000       0.4170000000
      6.7990000000     -21.9970000000       4.9320000000      -0.8340000000
      6.5480000000     -21.0880000000       5.0980000000       0.4170000000
      7.1110000000     -21.9980000000       4.0270000000       0.4170000000
      5.2946735926     -13.1861877415       2.5082405650      -0.8340000000
      6.2052018083     -13.0324283154       2.1742036822       0.4170000000
      5.4729589412     -13.5205362014       3.4125556961       0.4170000000
    -11.1612419067     -27.0983249073      -7.6161209141      -0.8340000000
    -11.3180234598     -27.2457686431      -8.5488115001       0.4170000000
    -10.3485385789     -27.5693218168      -7.4319822378       0.4170000000
    -25.2000000000     -16.9990000000       1.4350000000      -0.8340000000
    -25.5770000000     -17.8140000000       1.1020000000       0.4170000000
    -24.2810000000     -17.2090000000       1.5990000000       0.4170000000
     10.6879557949      -5.7229654917      -6.7422103348      -0.8340000000
      9.8845766027      -5.9134103319      -6.2117215922       0.4170000000
     10.6123943455      -6.3859081313      -7.4559278326       0.4170000000
     -9.2604749467     -12.3826913825       5.9056726539      -0.8340000000
     -9.3749562266     -12.7201325800       4.9909117913       0.4170000000
     -9.5477573434     -11.4545757491       5.7751383358       0.4170000000
    -14.2442372519      -3.7201841670     -19.2742471312      -0.8340000000
    -14.3202557208      -4.0073493347     -20.1841862494       0.4170000000
    -14.3790985740      -2.7731840338     -19.3093898614       0.4170000000
     -8.2779013058     -14.5116248050     -19.5819526616      -0.8340000000
     -7.6621907442     -14.2643923341     -20.2933521397       0.4170000000
     -7.8359575595     -15.3286640826     -19.2485011980       0.4170000000
     -4.1330000000       5.8640000000       5.6920000000      -0.8340000000
     -3.4210000000       5.9530000000       6.3250000000       0.4170000000
     -4.1930000000       4.9220000000       5.5300000000       0.4170000000
    -14.9649626567     -11.6773399302       1.6334838732      -0.8340000000
    -14.5796394179     -10.9405200176       2.1434227358       0.4170000000
    -14.1779006089     -11.9588706931       1.1203415780       0.4170000000
     -5.2958224586     -15.8842022724      -7.9895811171      -0.8340000000
     -4.5599453020     -16.4444127551      -8.2662727260       0.4170000000
     -4.8451328010     -15.0139650206      -7.9202172760       0.4170000000
    -17.8153199103      -4.5558046543     -15.0529648971      -0.8340000000
    -18.2525849533      -5.3725224085     -15.3405150078       0.4170000000
    -18.4876647941      -3.8883446581     -15.3038118472       0.4170000000
      5.7463445613     -16.8086561495      -8.1383644006      -0.8340000000
      6.3895462731     -16.1083280931      -7.8816042699       0.4170000000
      5.0303316244     -16.5605566791      -7.5243405467       0.4170000000
    -11.9690000000     -26.2380000000     -16.1010000000      -0.8340000000
    -12.9220000000     -26.3080000000     -16.0580000000       0.4170000000
    -11.6790000000     -27.0940000000     -16.4170000000       0.4170000000
    -13.7270000000       7.0930000000     -10.9470000000      -0.8340000000
    -13.7370000000       7.9660000000     -11.3390000000       0.4170000000
    -12.8890000000       6.7180000000     -11.2160000000       0.4170000000
      7.5890000000       1.3110000000     -15.5450000000      -0.8340000000
      8.1750000000       1.4020000000     -14.7940000000       0.4170000000
      7.2870000000       2.2020000000     -15.7240000000       0.4170000000
    -17.5940000000     -10.4620000000      10.7710000000      -0.8340000000
    -17.9620000000     -10.2380000000      11.6250000000       0.4170000000
    -16.8110000000      -9.9170000000      10.6960000000       0.4170000000
     -4.4890000000      -0.0580000000     -22.2840000000      -0.8340000000
     -3.9370000000      -0.8150000000     -22.4830000000       0.4170000000
     -5.0980000000      -0.3750000000     -21.6170000000       0.4170000000
    -21.8117400430      -3.6425461110      -5.1270707366      -0.8340000000
    -22.6921551061      -3.8736075223      -5.4232324842       0.4170000000
    -21.2868318602      -4.4235139881      -5.3025484125       0.4170000000
    -18.7740000000      -1.1270000000     -16.7720000000      -0.8340000000
    -19.3860000000      -1.7410000000     -16.3670000000       0.4170000000
    -18.4860000000      -0.5650000000     -16.0530000000       0.4170000000
    -16.1154933867     -23.4796703124      -3.4880648355      -0.8340000000
    -15.5352066458     -22.8762242570      -3.0240044983       0.4170000000
    -15.5676785812     -24.2413862079      -3.6775896978       0.4170000000
      9.5420000000     -21.0270000000     -12.6220000000      -0.8340000000
     10.3070000000     -20.4540000000     -12.5650000000       0.4170000000
      9.6990000000     -21.5590000000     -13.4020000000       0.4170000000
    -12.0995013432      -7.3999884662       3.7388530086      -0.8340000000
    -11.2260671977      -7.0064911327       3.9635144357       0.4170000000
    -12.4039269125      -7.6383581279       4.6501744111       0.4170000000
      9.4390000000      -5.1810000000       4.5990000000      -0.8340000000
      9.4310000000      -5.6600000000       3.7710000000       0.4170000000
      9.3890000000      -5.8610000000       5.2710000000       0.4170000000
      0.9797812359     -16.8262461321       7.3056797776      -0.8340000000
      0.0879794173     -16.9450106855       6.9248801004       0.4170000000
      1.1796141039     -17.7661249847       7.5062881694       0.4170000000
     -2.3670000000     -28.1780000000      -8.6920000000      -0.8340000000
     -2.3860000000     -28.7870000000      -9.4300000000       0.4170000000
     -2.0390000000     -28.6990000000      -7.9590000000       0.4170000000
     -3.8471277620      -6.0381349237       6.6279112791      -0.8340000000
     -4.4672388160      -5.3039298612       6.7816235005       0.4170000000
     -3.5178947659      -6.2272944288       7.5247025797       0.4170000000
    -13.4680000000     -12.0270000000     -23.1910000000      -0.8340000000
    -14.0470000000     -12.6070000000     -22.6960000000       0.4170000000
    -12.6100000000     -12.4490000000     -23.1460000000       0.4170000000
     -1.7403624475     -11.1808189394      -7.2088461017      -0.8340000000
     -1.5885580162     -12.1394869504      -7.0675305748       0.4170000000
     -2.3737595624     -10.9627140285      -6.4810064526       0.4170000000
     -6.0941930840     -17.2511093209     -14.2460133944      -0.8340000000
     -6.6657454778     -16.4866376850     -14.4475979688       0.4170000000
     -6.7247128485     -17.9711779982     -14.0517453378       0.4170000000
    -18.4107855360      -7.0469755588     -11.2603091835      -0.8340000000
    -18.5148785648      -7.4539947378     -12.1450063670       0.4170000000
    -18.1445316141      -6.1355765117     -11.5147973295       0.4170000000
    -10.5603498826       0.4822780439      -9.3986702576      -0.8340000000
    -10.1537103348       1.0054703802      -8.6753336293       0.4170000000
     -9.9132352324      -0.2480095370      -9.4635077649       0.4170000000
    -21.7270554834     -17.6246002276      -8.9408703375      -0.8340000000
    -20.7849619536     -17.8855288896      -8.9583973924       0.4170000000
    -21.6544977610     -16.6674929535      -8.7712806891       0.4170000000
     -5.1382382021     -23.6045822886       0.6169561831      -0.8340000000
     -4.8961315913     -24.4452487016       0.1727459707       0.4170000000
     -5.7803592452     -23.2139234227      -0.0082491072       0.4170000000
    -11.8880000000     -15.4980000000      11.7450000000      -0.8340000000
    -12.7380000000     -15.5450000000      11.3080000000       0.4170000000
    -11.7160000000     -14.5610000000      11.8370000000       0.4170000000
      9.7282849659     -12.1619486904      -7.4833253126      -0.8340000000
      9.7417967046     -12.9577091999      -6.9182004971       0.4170000000
     10.2432749085     -11.5354672872      -6.9246286157       0.4170000000
     -2.9130332803     -20.8798433175     -13.4006566875      -0.8340000000
     -1.9646869673     -21.0603174898     -13.2194885292       0.4170000000
     -2.8409165262     -19.9404043426     -13.6851416914       0.4170000000
     -0.0800000000       2.7290000000     -16.4170000000      -0.8340000000
      0.8110000000       2.4130000000     -16.5680000000       0.4170000000
     -0.0200000000       3.2370000000     -15.6080000000       0.4170000000
    -15.5853987633      -9.2307604530      -7.9620997462      -0.8340000000
    -14.8214939229      -9.8428558566      -8.0388566622       0.4170000000
    -16.2143983278      -9.7978727003      -7.4588056936       0.4170000000
     -9.6431747061     -13.0171131822       3.2695963425      -0.8340000000
    -10.4080482784     -12.4050885745       3.2592654774       0.4170000000
     -9.2432211985     -12.7909580273       2.4037726603       0.4170000000
     -6.9900000000       8.5940000000     -10.5640000000      -0.8340000000
     -7.2530000000       7.7260000000     -10.2590000000       0.4170000000
     -7.7750000000       8.9510000000     -10.9790000000       0.4170000000
     -9.4986075971     -16.1993258628      -4.6760315942      -0.8340000000
     -9.0916959888     -16.4560163643      -3.8216158579       0.4170000000
     -8.6971056494     -15.9480277989      -5.1765593085       0.4170000000
     -5.6390000000     -16.7630000000      12.5490000000      -0.8340000000
     -5.4510000000     -16.0280000000      11.9660000000       0.4170000000
     -4.7780000000     -17.0980000000      12.7990000000       0.4170000000
      7.9770000000      -3.4280000000       7.8400000000      -0.8340000000
      8.6330000000      -2.7740000000       7.6000000000       0.4170000000
      7.5300000000      -3.6330000000       7.0190000000       0.4170000000
    -17.1332939070     -10.1161008089       6.0278273684      -0.8340000000
    -17.0515540803     -11.0420160281       5.7149877957       0.4170000000
    -16.7242582161      -9.6054977779       5.2984412146       0.4170000000
    -13.8052986576      -9.3780023367       2.8128056278      -0.8340000000
    -14.5776390240      -9.1344574733       3.3784662189       0.4170000000
    -13.1977109782      -8.6479271694       3.0565525730       0.4170000000
      9.0640000000     -11.5730000000       5.2100000000      -0.8340000000
      9.2700000000     -11.9060000000       6.0840000000       0.4170000000
      9.2490000000     -12.3070000000       4.6240000000       0.4170000000
    -18.5390136828     -16.0528055531     -14.6738134413      -0.8340000000
    -18.6766515464     -15.0810921116     -14.6288164203       0.4170000000
    -19.3397809026     -16.3625378390     -15.1451225678       0.4170000000
     -4.9460000000       7.1710000000       1.2470000000      -0.8340000000
     -5.0380000000       7.0520000000       2.1920000000       0.4170000000
     -5.6590000000       7.7640000000       1.0100000000       0.4170000000
     -1.5509515877     -17.3058459048       6.2560482128      -0.8340000000
     -1.2437243137     -17.4997269463       5.3512321069       0.4170000000
     -2.2424273591     -17.9931470162       6.3230569845       0.4170000000
     10.1910000000     -18.5640000000      -8.9970000000      -0.8340000000
     10.2560000000     -19.2990000000      -9.6060000000       0.4170000000
      9.6800000000     -17.9060000000      -9.4680000000       0.4170000000
     -4.7980000000      -4.5460000000      14.4130000000      -0.8340000000
     -5.0430000000      -5.0620000000      15.1810000000       0.4170000000
     -4.5650000000      -5.1970000000      13.7510000000       0.4170000000
     -3.9016900874      -8.8039769599     -21.7840183524      -0.8340000000
     -3.5666888600      -9.4161053268     -21.1288047384       0.4170000000
     -3.2648645573      -8.0894065461     -21.7926327487       0.4170000000
    -25.9690000000     -18.4970000000      -1.7330000000      -0.8340000000
    -26.2680000000     -18.2900000000      -2.6180000000       0.4170000000
    -25.1230000000     -18.0560000000      -1.6570000000       0.4170000000
    -15.5970963322      -3.4403925037      -7.1751419366      -0.8340000000
    -15.6850191344      -3.7367967808      -8.1038483759       0.4170000000
    -14.7099047414      -3.0268987766      -7.1946596670       0.4170000000
    -25.1130000000     -15.3660000000      -0.8340000000      -0.8340000000
    -25.4190000000     -15.7920000000      -1.6350000000       0.4170000000
    -25.1990000000     -16.0380000000      -0.1570000000       0.4170000000
     -7.6871486764     -19.7079824886     -16.2276738781      -0.8340000000
     -6.9390191504     -19.3102265027     -16.6946884950       0.4170000000
     -7.3772400226     -19.6890967565     -15.2944953056       0.4170000000
    -11.2273648951      -0.3910256508      -4.7324005647      -0.8340000000
    -10.5559718704      -0.9323444069      -5.1900006960       0.4170000000
    -11.8756672186      -1.0795666808      -4.4809989247       0.4170000000
      1.5263365995      -0.3963465499     -10.8256805401      -0.8340000000
      0.6121551733      -0.3972568236     -11.1926966738       0.4170000000
      1.6830927325       0.5785257263     -10.8369019496       0.4170000000
     -5.1325005618       5.6885504701      -3.1453590678      -0.8340000000
     -4.3002416016       5.1945625771      -2.9970677813       0.4170000000
     -5.7840465733       4.9578835950      -3.0677056424       0.4170000000
      5.3170000000       0.2840000000     -16.9880000000      -0.8340000000
      4.5690000000       0.8710000000     -17.1010000000       0.4170000000
      5.8920000000       0.7440000000     -16.3760000000       0.4170000000
     -9.8520000000       8.8440000000       1.8950000000      -0.8340000000
    -10.7200000000       9.0520000000       2.2430000000       0.4170000000
     -9.8490000000       7.8910000000       1.8120000000       0.4170000000
    -18.8465655752     -22.1459401656      -7.9884298097      -0.8340000000
    -18.8936850103     -21.5712564683      -7.2243943086       0.4170000000
    -19.7591765153     -22.3531620419      -8.1895074214       0.4170000000
      0.9530000000      -4.3560000000      11.4070000000      -0.8340000000
      0.8480000000      -3.4320000000      11.1790000000       0.4170000000
      1.6480000000      -4.3630000000      12.0650000000       0.4170000000
     -0.7825890148       0.8502264474       1.1703828140      -0.8340000000
     -1.0373474571       0.7841978438       2.1202268496       0.4170000000
     -1.3513233514       1.6145428686       0.9098144615       0.4170000000
    -19.4450000000     -19.8340000000     -18.6330000000      -0.8340000000
    -18.9380000000     -19.1450000000     -18.2030000000       0.4170000000
    -20.3540000000     -19.6420000000     -18.4030000000       0.4170000000
    -16.8222801651     -16.7883428172     -10.7649111687      -0.8340000000
    -16.5407350562     -17.7203841655     -10.8415710212       0.4170000000
    -16.1370095102     -16.3186875583     -11.2856273753       0.4170000000
     -4.2224583474       0.3856663540     -10.1732536912      -0.8340000000
     -5.1542975673       0.1182995554     -10.2965254750       0.4170000000
     -4.2855193756       1.3283032041     -10.4197400319       0.4170000000
    -22.2917068218      -6.6305585181      -7.8004426688      -0.8340000000
    -21.9453317885      -6.5543876815      -6.8914922805       0.4170000000
    -21.5113859138      -7.0065070644      -8.2556269202       0.4170000000
     10.4640000000      -3.2980000000     -17.0380000000      -0.8340000000
      9.9960000000      -2.6400000000     -16.5240000000       0.4170000000
      9.8830000000      -4.0590000000     -17.0390000000       0.4170000000
    -14.0283988930     -14.9345577700       5.0262394246      -0.8340000000
    -14.5623318748     -15.4926300694       4.4271292565       0.4170000000
    -13.5245397798     -14.4373847582       4.3458156317       0.4170000000
     -7.4894096444       4.9349912676      -6.2901391690      -0.8340000000
     -6.9330157738       4.1237793035      -6.2606895685       0.4170000000
     -8.0204426838       4.8178661524      -5.4751245568       0.4170000000
      0.4480000000     -27.6550000000       4.3590000000      -0.8340000000
      0.0130000000     -28.5030000000       4.2820000000       0.4170000000
      0.1600000000     -27.1660000000       3.5880000000       0.4170000000
     -0.8670000000      -3.3690000000     -22.8590000000      -0.8340000000
     -0.3210000000      -2.8350000000     -23.4360000000       0.4170000000
     -0.3130000000      -4.1140000000     -22.6260000000       0.4170000000
     -5.3012373737      -4.8623422085       3.4812043386      -0.8340000000
     -6.2013162864      -5.1591772833       3.2193528167       0.4170000000
     -5.0016896610      -4.5021402203       2.6157632378       0.4170000000
    -21.3850000000      -1.0290000000       5.9340000000      -0.8340000000
    -20.4790000000      -0.9550000000       5.6330000000       0.4170000000
    -21.3280000000      -0.9590000000       6.8870000000       0.4170000000
      1.7761384958     -18.6315185625      -2.3558573932      -0.8340000000
      2.0240281509     -18.8607063863      -3.2723220157       0.4170000000
      0.8179918060     -18.8101785665      -2.3979761070       0.4170000000
     -1.0769930818     -10.5883850460       6.6415788794      -0.8340000000
     -0.7894663574     -10.4424345458       5.7159845658       0.4170000000
     -1.0358488682     -11.5656806868       6.6951840487       0.4170000000
      9.9160000000     -17.2030000000     -17.4370000000      -0.8340000000
     10.5000000000     -17.1530000000     -16.6800000000       0.4170000000
     10.4710000000     -17.5260000000     -18.1470000000       0.4170000000
      0.7538594003     -10.1871725261      -7.7066675129      -0.8340000000
     -0.1302226670     -10.6161413666      -7.6401699382       0.4170000000
      1.1578756188     -10.4903536255      -6.8651970190       0.4170000000
    -13.3159599625      -3.8391183402      -0.3981088128      -0.8340000000
    -13.7362340563      -3.2410633924      -1.0409281670       0.4170000000
    -13.4480583703      -3.3362360283       0.4328058404       0.4170000000
      2.5280000000      -0.2490000000       9.9690000000      -0.8340000000
      3.3950000000      -0.6560000000       9.9690000000       0.4170000000
      2.6960000000       0.6730000000       9.7720000000       0.4170000000
      6.5970000000     -12.4080000000      12.0930000000      -0.8340000000
      5.8020000000     -12.6770000000      11.6310000000       0.4170000000
      6.3300000000     -12.3380000000      13.0090000000       0.4170000000
    -22.6540000000      -5.9510000000       3.8400000000      -0.8340000000
    -22.2600000000      -6.6000000000       3.2570000000       0.4170000000
    -22.1030000000      -5.1750000000       3.7420000000       0.4170000000
     10.9000000000     -23.7710000000     -10.1260000000      -0.8340000000
     10.5590000000     -23.1230000000      -9.5100000000       0.4170000000
     11.8490000000     -23.7350000000     -10.0110000000       0.4170000000
    -21.4291189193      -7.9827535928     -12.6368099300      -0.8340000000
    -21.9836317196      -8.5343375353     -13.1886274259       0.4170000000
    -20.5405867208      -8.1400070855     -12.9562057837       0.4170000000
    -19.2101286983     -12.7292545994     -11.7016241967      -0.8340000000
    -19.5866501201     -12.3363240404     -10.8798216001       0.4170000000
    -18.2838693586     -12.4190218344     -11.5955440169       0.4170000000
     -2.8539021923       1.4006665066      -3.6148681651      -0.8340000000
     -2.8912565694       0.9072824445      -4.4632388215       0.4170000000
     -1.9833366401       1.0847575719      -3.2914275196       0.4170000000
     -1.8310000000      -1.0780000000     -21.3540000000      -0.8340000000
     -1.0370000000      -0.5570000000     -21.4780000000       0.4170000000
     -1.7630000000      -1.7770000000     -22.0030000000       0.4170000000
    -19.6120000000     -22.3050000000     -15.9660000000      -0.8340000000
    -18.8090000000     -22.7630000000     -16.2180000000       0.4170000000
    -19.3160000000     -21.4380000000     -15.6900000000       0.4170000000
    -11.9291174451     -21.3613971956     -15.9435690068      -0.8340000000
    -10.9681500154     -21.4411919321     -16.1280371627       0.4170000000
    -12.0540517476     -22.1885885430     -15.4389667517       0.4170000000
     -7.9030000000     -12.4850000000     -22.8610000000      -0.8340000000
     -7.3680000000     -12.7750000000     -23.6010000000       0.4170000000
     -7.3960000000     -12.7330000000     -22.0880000000       0.4170000000
    -15.6421905656      -0.7700598975     -14.6099607370      -0.8340000000
    -14.8873262024      -0.7307199821     -15.2227539447       0.4170000000
    -15.2024791847      -1.1877848715     -13.8434451641       0.4170000000
     -5.0380463429     -24.7296693141       3.0972462762      -0.8340000000
     -5.2078473139     -24.2729352173       2.2438218783       0.4170000000
     -5.9470591096     -24.9726734258       3.3542413907       0.4170000000
      0.3710000000       4.8080000000     -13.5320000000      -0.8340000000
      0.8550000000       5.2820000000     -14.2080000000       0.4170000000
     -0.5490000000       4.9300000000     -13.7650000000       0.4170000000
      4.1834668437      -8.0110289927       1.7532518341      -0.8340000000
      4.8063803440      -7.3091426848       2.0224745141       0.4170000000
      4.3314773934      -8.6772408154       2.4588999897       0.4170000000
    -11.7170000000     -15.1930000000     -22.4150000000      -0.8340000000
    -10.8950000000     -15.6220000000     -22.1770000000       0.4170000000
    -11.4520000000     -14.3420000000     -22.7650000000       0.4170000000
      1.6120000000       1.6970000000       4.6020000000      -0.8340000000
      0.9040000000       2.2290000000       4.2400000000       0.4170000000
      2.3960000000       1.9920000000       4.1390000000       0.4170000000
     -8.3740000000     -28.0310000000      -8.1660000000      -0.8340000000
     -8.5540000000     -28.9650000000      -8.2740000000       0.4170000000
     -8.1760000000     -27.7210000000      -9.0500000000       0.4170000000
      2.6416748801     -14.6453071033      -4.1248424981      -0.8340000000
      1.8292915083     -15.1352186684      -4.3924621705       0.4170000000
      2.9532030963     -15.2163578334      -3.3890866899       0.4170000000
    -25.3650000000      -8.8600000000      -6.2720000000      -0.8340000000
    -25.4420000000      -7.9900000000      -5.8800000000       0.4170000000
    -26.1970000000      -8.9930000000      -6.7260000000       0.4170000000
    -19.3960000000     -16.6070000000       9.0060000000      -0.8340000000
    -19.8660000000     -15.9520000000       9.5210000000       0.4170000000
    -19.2530000000     -17.3330000000       9.6130000000       0.4170000000
      2.5651514297     -11.7118984822     -16.5800312390      -0.8340000000
      3.2684095531     -11.5311743577     -17.2386956488       0.4170000000
      2.7761550591     -11.0874220608     -15.8678895894       0.4170000000
      7.6692949568     -18.8411721997     -12.1548197031      -0.8340000000
      8.3332018768     -19.5536236707     -12.1363430594       0.4170000000
      7.3542551976     -18.8407689608     -11.2224266545       0.4170000000
    -11.5604815658      -4.6411797820     -19.2430078162      -0.8340000000
    -12.0415131852      -5.3477908569     -18.8122628685       0.4170000000
    -12.1276220530      -3.8753218279     -19.1533133240       0.4170000000
    -15.9516506567      -7.1385144738     -16.8736997564      -0.8340000000
    -16.5865261795      -6.4627697049     -17.1608151561       0.4170000000