%NprocShared=16
%chk=gaussian.chk
%mem=1gb
#P B3LYP/cc-pVDZ EmpiricalDispersion=GD3
scf(conver=8) iop(4/5=100) nosymm
Charge Force Prop=(Field,Read) pop=mk

Gaussian run for QMMM in genesis

-1 1
 P        -5.0381916603     -10.6801447624      -5.3863186058
 O        -5.6318020639     -10.8559589275      -3.8524758760
 H        -5.5195686350     -11.7693887977      -3.5204512773
 O        -5.7771451955      -9.2805476835      -5.7855461037
 H        -6.7580026186      -9.3483493033      -5.6826334245
 O        -3.5288901936     -10.4024119515      -5.4017596669
 O        -5.5395611073     -11.8501734634      -6.2693497105
 
     -2.6964336428     -14.6161244116     -20.9755144170      -0.8340000000
     -2.7274505023     -14.8118519967     -20.0205576928       0.4170000000
     -1.7791071011     -14.8619782894     -21.1896944744       0.4170000000
      1.0796639440      -4.2188274921     -12.8064598353      -0.8340000000
      0.7811154680      -3.3629754395     -13.1795126196       0.4170000000
      1.9684029442      -3.9648195649     -12.5068650609       0.4170000000
      5.0563321754     -20.5447760511      -5.6893914025      -0.8340000000
      4.2512853288     -20.3409514779      -6.1654029130       0.4170000000
      5.5002703217     -19.7018328849      -5.5966682619       0.4170000000
    -19.6427155329     -15.7502865054      -0.6728375438      -0.8340000000
    -19.9558677119     -15.1981326364       0.0723182053       0.4170000000
    -19.3504083481     -16.5558513961      -0.1921753947       0.4170000000
     -5.5930000000      -9.4960000000      11.9470000000      -0.8340000000
     -4.8730000000      -9.3010000000      11.3470000000       0.4170000000
     -5.2990000000     -10.2650000000      12.4340000000       0.4170000000
    -17.9579073540     -15.7289074410       2.1333873004      -0.8340000000
    -18.7919216051     -16.2299156714       2.2242637102       0.4170000000
    -17.3067552941     -16.4180077823       2.3324334567       0.4170000000
    -20.5030000000      -8.7000000000     -18.3330000000      -0.8340000000
    -20.1000000000      -7.9550000000     -18.7790000000       0.4170000000
    -19.9410000000      -9.4440000000     -18.5520000000       0.4170000000
    -21.7340000000     -19.2730000000      -3.2290000000      -0.8340000000
    -21.4420000000     -19.8120000000      -3.9640000000       0.4170000000
    -21.3640000000     -18.4080000000      -3.4020000000       0.4170000000
     -7.2650431702       2.3630674207       5.3325756616      -0.8340000000
     -7.5203786771       3.0064826394       4.6506612940       0.4170000000
     -7.7447053708       2.6975526967       6.1178837450       0.4170000000
    -20.7830000000     -19.9770000000      -0.1600000000      -0.8340000000
    -21.3390000000     -19.8850000000      -0.9340000000       0.4170000000
    -20.1610000000     -20.6670000000      -0.3920000000       0.4170000000
     -1.4493364746     -18.7805729290       3.8070623396      -0.8340000000
     -1.3196433364     -19.6853564689       3.4550298219       0.4170000000
     -2.2065595202     -18.9640161259       4.3975900042       0.4170000000
    -20.9676652399     -14.2422458518       1.2255624805      -0.8340000000
    -20.7389626396     -13.3143395528       1.4325639401       0.4170000000
    -21.5713745673     -14.0994511538       0.4657368753       0.4170000000
    -22.5140000000     -16.5510000000       6.1750000000      -0.8340000000
    -22.8920000000     -16.5770000000       7.0540000000       0.4170000000
    -22.7990000000     -17.3680000000       5.7660000000       0.4170000000
     -4.0712256128     -13.3136232465       9.3745926860      -0.8340000000
     -4.4516613293     -12.8296093307      10.1387515617       0.4170000000
     -3.5046029474     -12.5976420378       9.0180915884       0.4170000000
     -3.3598576346     -21.5270936653       0.8277818822      -0.8340000000
     -3.8897743299     -22.3535680659       0.8023436510       0.4170000000
     -4.0537589197     -20.8789223840       0.5888568213       0.4170000000
     -9.0905086180     -24.0903433820     -11.3694440440      -0.8340000000
     -8.8483151529     -23.3089433673     -10.8288445501       0.4170000000
     -8.4444322052     -24.7332362805     -11.0166578348       0.4170000000
    -19.2529435156     -13.3548383514     -14.3798517570      -0.8340000000
    -19.2534148428     -13.1071637532     -13.4268215664       0.4170000000
    -20.2055912206     -13.3609941385     -14.5802656288       0.4170000000
    -17.7510000000       1.0020000000     -15.1100000000      -0.8340000000
    -17.1890000000       0.2420000000     -14.9580000000       0.4170000000
    -17.2010000000       1.7550000000     -14.8950000000       0.4170000000
     -3.6951913235      -7.0000816075       4.1196034898      -0.8340000000
     -4.2926657775      -6.2725794906       3.8525887127       0.4170000000
     -3.6515544887      -6.8194181510       5.0880412390       0.4170000000
      5.9960000000     -25.0310000000      -6.8440000000      -0.8340000000
      6.2450000000     -25.2160000000      -7.7490000000       0.4170000000
      6.5630000000     -25.5950000000      -6.3180000000       0.4170000000
    -18.1572856259     -13.1413751976       2.9398783278      -0.8340000000
    -18.1730879675     -14.0778567727       2.6424471356       0.4170000000
    -19.0866424393     -13.0152040149       3.2291914481       0.4170000000
      5.1020000000     -24.2100000000     -13.9410000000      -0.8340000000
      4.2860000000     -24.5860000000     -14.2730000000       0.4170000000
      5.5770000000     -24.9540000000     -13.5710000000       0.4170000000
    -11.7830000000       2.5430000000     -17.5750000000      -0.8340000000
    -11.3150000000       1.9990000000     -18.2080000000       0.4170000000
    -11.5370000000       2.1850000000     -16.7220000000       0.4170000000
      6.7990000000     -21.9970000000       4.9320000000      -0.8340000000
      6.5480000000     -21.0880000000       5.0980000000       0.4170000000
      7.1110000000     -21.9980000000       4.0270000000       0.4170000000
      5.2941737293     -13.1859339334       2.5080036659      -0.8340000000
      6.2046784029     -13.0324310417       2.1738443118       0.4170000000
      5.4724541896     -13.5204978474       3.4122484538       0.4170000000
    -11.1612419067     -27.0983249073      -7.6161209141      -0.8340000000
    -11.3180234598     -27.2457686431      -8.5488115001       0.4170000000
    -10.3485385789     -27.5693218168      -7.4319822378       0.4170000000
    -25.2000000000     -16.9990000000       1.4350000000      -0.8340000000
    -25.5770000000     -17.8140000000       1.1020000000       0.4170000000
    -24.2810000000     -17.2090000000       1.5990000000       0.4170000000
     10.6880734803      -5.7230421736      -6.7421085948      -0.8340000000
      9.8846668837      -5.9135100227      -6.2116782287       0.4170000000
     10.6126811836      -6.3860450817      -7.4557860014       0.4170000000
     -9.2586895877     -12.3850635531       5.9056213906      -0.8340000000
     -9.3738250881     -12.7233498429       4.9912555449       0.4170000000
     -9.5471026218     -11.4574140322       5.7744998201       0.4170000000
    -14.2442372519      -3.7201841670     -19.2742471312      -0.8340000000
    -14.3202557208      -4.0073493347     -20.1841862494       0.4170000000
    -14.3790985740      -2.7731840338     -19.3093898614       0.4170000000
     -8.2781617361     -14.5122311613     -19.5823911648      -0.8340000000
     -7.6623663946     -14.2651008254     -20.2937432726       0.4170000000
     -7.8360149792     -15.3289890197     -19.2485429377       0.4170000000
     -4.1330000000       5.8640000000       5.6920000000      -0.8340000000
     -3.4210000000       5.9530000000       6.3250000000       0.4170000000
     -4.1930000000       4.9220000000       5.5300000000       0.4170000000
    -14.9658163293     -11.6786306013       1.6313849148      -0.8340000000
    -14.5806217575     -10.9414927235       2.1409369428       0.4170000000
    -14.1791589588     -11.9593218637       1.1171740684       0.4170000000
     -5.2955682378     -15.8856154155      -7.9893016212      -0.8340000000
     -4.5601528744     -16.4474637829      -8.2642017406       0.4170000000
     -4.8437375007     -15.0159463281      -7.9215960780       0.4170000000
    -17.8130167271      -4.5516357717     -15.0501222934      -0.8340000000
    -18.2491064440      -5.3687378543     -15.3380590581       0.4170000000
    -18.4857271767      -3.8849666835     -15.3020422466       0.4170000000
      5.7468941092     -16.8087760297      -8.1383298172      -0.8340000000
      6.3898070332     -16.1081252180      -7.8816168720       0.4170000000
      5.0309682171     -16.5613786669      -7.5240072704       0.4170000000
    -11.9690000000     -26.2380000000     -16.1010000000      -0.8340000000
    -12.9220000000     -26.3080000000     -16.0580000000       0.4170000000
    -11.6790000000     -27.0940000000     -16.4170000000       0.4170000000
    -13.7270000000       7.0930000000     -10.9470000000      -0.8340000000
    -13.7370000000       7.9660000000     -11.3390000000       0.4170000000
    -12.8890000000       6.7180000000     -11.2160000000       0.4170000000
      7.5890000000       1.3110000000     -15.5450000000      -0.8340000000
      8.1750000000       1.4020000000     -14.7940000000       0.4170000000
      7.2870000000       2.2020000000     -15.7240000000       0.4170000000
    -17.5940000000     -10.4620000000      10.7710000000      -0.8340000000
    -17.9620000000     -10.2380000000      11.6250000000       0.4170000000
    -16.8110000000      -9.9170000000      10.6960000000       0.4170000000
     -4.4890000000      -0.0580000000     -22.2840000000      -0.8340000000
     -3.9370000000      -0.8150000000     -22.4830000000       0.4170000000
     -5.0980000000      -0.3750000000     -21.6170000000       0.4170000000
    -21.8117400430      -3.6425461110      -5.1270707366      -0.8340000000
    -22.6921551061      -3.8736075223      -5.4232324842       0.4170000000
    -21.2868318602      -4.4235139881      -5.3025484125       0.4170000000
    -18.7740000000      -1.1270000000     -16.7720000000      -0.8340000000
    -19.3860000000      -1.7410000000     -16.3670000000       0.4170000000
    -18.4860000000      -0.5650000000     -16.0530000000       0.4170000000
    -16.1154933867     -23.4796703124      -3.4880648355      -0.8340000000
    -15.5352066458     -22.8762242570      -3.0240044983       0.4170000000
    -15.5676785812     -24.2413862079      -3.6775896978       0.4170000000
      9.5420000000     -21.0270000000     -12.6220000000      -0.8340000000
     10.3070000000     -20.4540000000     -12.5650000000       0.4170000000
      9.6990000000     -21.5590000000     -13.4020000000       0.4170000000
    -12.0993231183      -7.4013603762       3.7375647793      -0.8340000000
    -11.2262005567      -7.0073575160       3.9626230334       0.4170000000
    -12.4039886131      -7.6397006228       4.6487834566       0.4170000000
      9.4390000000      -5.1810000000       4.5990000000      -0.8340000000
      9.4310000000      -5.6600000000       3.7710000000       0.4170000000
      9.3890000000      -5.8610000000       5.2710000000       0.4170000000
      0.9798950539     -16.8262595603       7.3056514215      -0.8340000000
      0.0880131907     -16.9450499764       6.9250363529       0.4170000000
      1.1798682237     -17.7661262348       7.5061315856       0.4170000000
     -2.3670000000     -28.1780000000      -8.6920000000      -0.8340000000
     -2.3860000000     -28.7870000000      -9.4300000000       0.4170000000
     -2.0390000000     -28.6990000000      -7.9590000000       0.4170000000
     -3.8471734024      -6.0377766640       6.6273506232      -0.8340000000
     -4.4675535104      -5.3038464142       6.7813430367       0.4170000000
     -3.5181575969      -6.2273233876       7.5241347515       0.4170000000
    -13.4680000000     -12.0270000000     -23.1910000000      -0.8340000000
    -14.0470000000     -12.6070000000     -22.6960000000       0.4170000000
    -12.6100000000     -12.4490000000     -23.1460000000       0.4170000000
     -1.7480197123     -11.1777510773      -7.1966559658      -0.8340000000
     -1.5954423214     -12.1356097004      -7.0522159514       0.4170000000
     -2.3850954603     -10.9615391020      -6.4718054282       0.4170000000
     -6.0934850790     -17.2507766368     -14.2456579981      -0.8340000000
     -6.6655345557     -16.4866094227     -14.4474998172       0.4170000000
     -6.7235418183     -17.9711027849     -14.0512546367       0.4170000000
    -18.4101073158      -7.0434810852     -11.2589531991      -0.8340000000
    -18.5148276819      -7.4498651301     -12.1438647108       0.4170000000
    -18.1421325351      -6.1324146854     -11.5128886346       0.4170000000
    -10.5580603563       0.4824437635      -9.3992315357      -0.8340000000
    -10.1508613682       1.0054383165      -8.6760367116       0.4170000000
     -9.9115249840      -0.2483683755      -9.4642029460       0.4170000000
    -21.7270217289     -17.6243600531      -8.9407725527      -0.8340000000
    -20.7849446589     -17.8853972693      -8.9583835405       0.4170000000
    -21.6543272710     -16.6672745709      -8.7711597235       0.4170000000
     -5.1377888110     -23.6048101654       0.6167322301      -0.8340000000
     -4.8954822380     -24.4454085536       0.1724609459       0.4170000000
     -5.7796610714     -23.2140085411      -0.0085999389       0.4170000000
    -11.8880000000     -15.4980000000      11.7450000000      -0.8340000000
    -12.7380000000     -15.5450000000      11.3080000000       0.4170000000
    -11.7160000000     -14.5610000000      11.8370000000       0.4170000000
      9.7281919432     -12.1619100035      -7.4832920711      -0.8340000000
      9.7412364776     -12.9573586223      -6.9177392000       0.4170000000
     10.2429735619     -11.5352325585      -6.9246215028       0.4170000000
     -2.9130675820     -20.8798165366     -13.4007019321      -0.8340000000
     -1.9647382301     -21.0603149495     -13.2193693071       0.4170000000
     -2.8408477719     -19.9402936101     -13.6848141457       0.4170000000
     -0.0800000000       2.7290000000     -16.4170000000      -0.8340000000
      0.8110000000       2.4130000000     -16.5680000000       0.4170000000
     -0.0200000000       3.2370000000     -15.6080000000       0.4170000000
    -15.5840845611      -9.2286351541      -7.9606355621      -0.8340000000
    -14.8205032886      -9.8410359223      -8.0383604309       0.4170000000
    -16.2136658794      -9.7965375598      -7.4589106686       0.4170000000
     -9.6432016310     -13.0188275369       3.2698968775      -0.8340000000
    -10.4086132851     -12.4074659900       3.2593456947       0.4170000000
     -9.2439125474     -12.7931224032       2.4035988728       0.4170000000
     -6.9900000000       8.5940000000     -10.5640000000      -0.8340000000
     -7.2530000000       7.7260000000     -10.2590000000       0.4170000000
     -7.7750000000       8.9510000000     -10.9790000000       0.4170000000
     -9.4981974585     -16.1988713161      -4.6776773820      -0.8340000000
     -9.0922189311     -16.4569282044      -3.8232712894       0.4170000000
     -8.6959547482     -15.9479995903      -5.1773232066       0.4170000000
     -5.6390000000     -16.7630000000      12.5490000000      -0.8340000000
     -5.4510000000     -16.0280000000      11.9660000000       0.4170000000
     -4.7780000000     -17.0980000000      12.7990000000       0.4170000000
      7.9770000000      -3.4280000000       7.8400000000      -0.8340000000
      8.6330000000      -2.7740000000       7.6000000000       0.4170000000
      7.5300000000      -3.6330000000       7.0190000000       0.4170000000
    -17.1334105694     -10.1167519145       6.0285393838      -0.8340000000
    -17.0530861580     -11.0430636534       5.7164095019       0.4170000000
    -16.7246181919      -9.6071254376       5.2983940954       0.4170000000
    -13.8060439297      -9.3792238688       2.8106840900      -0.8340000000
    -14.5779780012      -9.1361957726       3.3771362285       0.4170000000
    -13.1984045601      -8.6492119803       3.0543464555       0.4170000000
      9.0640000000     -11.5730000000       5.2100000000      -0.8340000000
      9.2700000000     -11.9060000000       6.0840000000       0.4170000000
      9.2490000000     -12.3070000000       4.6240000000       0.4170000000
    -18.5389220510     -16.0530693117     -14.6739687355      -0.8340000000
    -18.6765479771     -15.0813590834     -14.6288753958       0.4170000000
    -19.3397690352     -16.3627535151     -15.1451813793       0.4170000000
     -4.9460000000       7.1710000000       1.2470000000      -0.8340000000
     -5.0380000000       7.0520000000       2.1920000000       0.4170000000
     -5.6590000000       7.7640000000       1.0100000000       0.4170000000
     -1.5508215817     -17.3059624047       6.2562085045      -0.8340000000
     -1.2435492013     -17.5000338392       5.3514335911       0.4170000000
     -2.2423655671     -17.9931741022       6.3232892838       0.4170000000
     10.1910000000     -18.5640000000      -8.9970000000      -0.8340000000
     10.2560000000     -19.2990000000      -9.6060000000       0.4170000000
      9.6800000000     -17.9060000000      -9.4680000000       0.4170000000
     -4.7980000000      -4.5460000000      14.4130000000      -0.8340000000
     -5.0430000000      -5.0620000000      15.1810000000       0.4170000000
     -4.5650000000      -5.1970000000      13.7510000000       0.4170000000
     -3.9016900874      -8.8039769599     -21.7840183524      -0.8340000000
     -3.5666888600      -9.4161053268     -21.1288047384       0.4170000000
     -3.2648645573      -8.0894065461     -21.7926327487       0.4170000000
    -25.9690000000     -18.4970000000      -1.7330000000      -0.8340000000
    -26.2680000000     -18.2900000000      -2.6180000000       0.4170000000
    -25.1230000000     -18.0560000000      -1.6570000000       0.4170000000
    -15.5952237379      -3.4382581328      -7.1720410125      -0.8340000000
    -15.6827896105      -3.7338161525      -8.1011397313       0.4170000000
    -14.7081333596      -3.0246114669      -7.1911107611       0.4170000000
    -25.1130000000     -15.3660000000      -0.8340000000      -0.8340000000
    -25.4190000000     -15.7920000000      -1.6350000000       0.4170000000
    -25.1990000000     -16.0380000000      -0.1570000000       0.4170000000
     -7.6872040208     -19.7080019390     -16.2277938460      -0.8340000000
     -6.9391667487     -19.3103793890     -16.6951052007       0.4170000000
     -7.3770711062     -19.6888682564     -15.2947425537       0.4170000000
    -11.2265886444      -0.3905167498      -4.7313542964      -0.8340000000
    -10.5547273564      -0.9318355953      -5.1882618418       0.4170000000
    -11.8746796837      -1.0791906372      -4.4798186715       0.4170000000
      1.5269192034      -0.3963717796     -10.8263786489      -0.8340000000
      0.6126124106      -0.3973706514     -11.1930531976       0.4170000000
      1.6834267712       0.5785471632     -10.8373677499       0.4170000000
     -5.1326872713       5.6884021440      -3.1455433707      -0.8340000000
     -4.3003694871       5.1945530476      -2.9971098342       0.4170000000
     -5.7841167804       4.9575787392      -3.0683051245       0.4170000000
      5.3170000000       0.2840000000     -16.9880000000      -0.8340000000
      4.5690000000       0.8710000000     -17.1010000000       0.4170000000
      5.8920000000       0.7440000000     -16.3760000000       0.4170000000
     -9.8520000000       8.8440000000       1.8950000000      -0.8340000000
    -10.7200000000       9.0520000000       2.2430000000       0.4170000000
     -9.8490000000       7.8910000000       1.8120000000       0.4170000000
    -18.8465655752     -22.1459401656      -7.9884298097      -0.8340000000
    -18.8936850103     -21.5712564683      -7.2243943086       0.4170000000
    -19.7591765153     -22.3531620419      -8.1895074214       0.4170000000
      0.9530000000      -4.3560000000      11.4070000000      -0.8340000000
      0.8480000000      -3.4320000000      11.1790000000       0.4170000000
      1.6480000000      -4.3630000000      12.0650000000       0.4170000000
     -0.7824161314       0.8504473163       1.1702153780      -0.8340000000
     -1.0371675358       0.7846741995       2.1200821228       0.4170000000
     -1.3510137321       1.6147853722       0.9095000074       0.4170000000
    -19.4450000000     -19.8340000000     -18.6330000000      -0.8340000000
    -18.9380000000     -19.1450000000     -18.2030000000       0.4170000000
    -20.3540000000     -19.6420000000     -18.4030000000       0.4170000000
    -16.8226534142     -16.7884910619     -10.7652690253      -0.8340000000
    -16.5409586852     -17.7204844698     -10.8418865304       0.4170000000
    -16.1371900428     -16.3186755580     -11.2855868255       0.4170000000
     -4.2227642841       0.3858251316     -10.1731955835      -0.8340000000
     -5.1545376417       0.1183565092     -10.2968214477       0.4170000000
     -4.2858495737       1.3284589849     -10.4197736140       0.4170000000
    -22.2906503067      -6.6300664722      -7.7997511085      -0.8340000000
    -21.9443297127      -6.5541244922      -6.8907611495       0.4170000000
    -21.5102891769      -7.0060164400      -8.2548890373       0.4170000000
     10.4640000000      -3.2980000000     -17.0380000000      -0.8340000000
      9.9960000000      -2.6400000000     -16.5240000000       0.4170000000
      9.8830000000      -4.0590000000     -17.0390000000       0.4170000000
    -14.0243665261     -14.9337041314       5.0233595395      -0.8340000000
    -14.5587717920     -15.4923907413       4.4251315674       0.4170000000
    -13.5203588381     -14.4378012158       4.3420974006       0.4170000000
     -7.4899195161       4.9348381049      -6.2902880896      -0.8340000000
     -6.9333061834       4.1237823485      -6.2607006928       0.4170000000
     -8.0207434847       4.8178592635      -5.4751041775       0.4170000000
      0.4480000000     -27.6550000000       4.3590000000      -0.8340000000
      0.0130000000     -28.5030000000       4.2820000000       0.4170000000
      0.1600000000     -27.1660000000       3.5880000000       0.4170000000
     -0.8670000000      -3.3690000000     -22.8590000000      -0.8340000000
     -0.3210000000      -2.8350000000     -23.4360000000       0.4170000000
     -0.3130000000      -4.1140000000     -22.6260000000       0.4170000000
     -5.3014855929      -4.8612567942       3.4815757131      -0.8340000000
     -6.2014397580      -5.1585913997       3.2197886294       0.4170000000
     -5.0018394843      -4.5015797403       2.6159630487       0.4170000000
    -21.3850000000      -1.0290000000       5.9340000000      -0.8340000000
    -20.4790000000      -0.9550000000       5.6330000000       0.4170000000
    -21.3280000000      -0.9590000000       6.8870000000       0.4170000000
      1.7756114304     -18.6310716578      -2.3559130168      -0.8340000000
      2.0235722438     -18.8606796634      -3.2722522481       0.4170000000
      0.8176145996     -18.8105155550      -2.3978159845       0.4170000000
     -1.0771318984     -10.5884401280       6.6411123840      -0.8340000000
     -0.7895206060     -10.4423949558       5.7155682781       0.4170000000
     -1.0360054594     -11.5657584705       6.6944536202       0.4170000000
      9.9160000000     -17.2030000000     -17.4370000000      -0.8340000000
     10.5000000000     -17.1530000000     -16.6800000000       0.4170000000
     10.4710000000     -17.5260000000     -18.1470000000       0.4170000000
      0.7450472197     -10.1906512893      -7.7077030356      -0.8340000000
     -0.1398503857     -10.6171190592      -7.6364703377       0.4170000000
      1.1524283662     -10.4944642503      -6.8681659080       0.4170000000
    -13.3149492735      -3.8382925240      -0.3986467867      -0.8340000000
    -13.7349403945      -3.2398192922      -1.0412779186       0.4170000000
    -13.4471582024      -3.3358033830       0.4324864155       0.4170000000
      2.5280000000      -0.2490000000       9.9690000000      -0.8340000000
      3.3950000000      -0.6560000000       9.9690000000       0.4170000000
      2.6960000000       0.6730000000       9.7720000000       0.4170000000
      6.5970000000     -12.4080000000      12.0930000000      -0.8340000000
      5.8020000000     -12.6770000000      11.6310000000       0.4170000000
      6.3300000000     -12.3380000000      13.0090000000       0.4170000000
    -22.6540000000      -5.9510000000       3.8400000000      -0.8340000000
    -22.2600000000      -6.6000000000       3.2570000000       0.4170000000
    -22.1030000000      -5.1750000000       3.7420000000       0.4170000000
     10.9000000000     -23.7710000000     -10.1260000000      -0.8340000000
     10.5590000000     -23.1230000000      -9.5100000000       0.4170000000
     11.8490000000     -23.7350000000     -10.0110000000       0.4170000000
    -21.4291189193      -7.9827535928     -12.6368099300      -0.8340000000
    -21.9836317196      -8.5343375353     -13.1886274259       0.4170000000
    -20.5405867208      -8.1400070855     -12.9562057837       0.4170000000
    -19.2106741288     -12.7290472333     -11.7017566501      -0.8340000000
    -19.5877583392     -12.3358594043     -10.8803381554       0.4170000000
    -18.2847331447     -12.4178522286     -11.5957279388       0.4170000000
     -2.8545703102       1.4007081792      -3.6149800078      -0.8340000000
     -2.8917370221       0.9069994741      -4.4631830234       0.4170000000
     -1.9836709482       1.0856462518      -3.2916430830       0.4170000000
     -1.8310000000      -1.0780000000     -21.3540000000      -0.8340000000
     -1.0370000000      -0.5570000000     -21.4780000000       0.4170000000
     -1.7630000000      -1.7770000000     -22.0030000000       0.4170000000
    -19.6120000000     -22.3050000000     -15.9660000000      -0.8340000000
    -18.8090000000     -22.7630000000     -16.2180000000       0.4170000000
    -19.3160000000     -21.4380000000     -15.6900000000       0.4170000000
    -11.9290312116     -21.3615416912     -15.9436277074      -0.8340000000
    -10.9680977558     -21.4414215856     -16.1282319055       0.4170000000
    -12.0539440168     -22.1887743501     -15.4390829134       0.4170000000
     -7.9030000000     -12.4850000000     -22.8610000000      -0.8340000000
     -7.3680000000     -12.7750000000     -23.6010000000       0.4170000000
     -7.3960000000     -12.7330000000     -22.0880000000       0.4170000000
    -15.6430142921      -0.7706650671     -14.6091487894      -0.8340000000
    -14.8884004615      -0.7321811524     -15.2223345757       0.4170000000
    -15.2028422738      -1.1864714031     -13.8418923951       0.4170000000
     -5.0381025201     -24.7296224406       3.0969825317      -0.8340000000
     -5.2077885259     -24.2728096106       2.2435713673       0.4170000000
     -5.9471732087     -24.9724031859       3.3539854081       0.4170000000
      0.3710000000       4.8080000000     -13.5320000000      -0.8340000000
      0.8550000000       5.2820000000     -14.2080000000       0.4170000000
     -0.5490000000       4.9300000000     -13.7650000000       0.4170000000
      4.1836978877      -8.0107603288       1.7532599545      -0.8340000000
      4.8066521977      -7.3090073594       2.0227659917       0.4170000000
      4.3314214958      -8.6771402157       2.4588037595       0.4170000000
    -11.7170000000     -15.1930000000     -22.4150000000      -0.8340000000
    -10.8950000000     -15.6220000000     -22.1770000000       0.4170000000
    -11.4520000000     -14.3420000000     -22.7650000000       0.4170000000
      1.6120000000       1.6970000000       4.6020000000      -0.8340000000
      0.9040000000       2.2290000000       4.2400000000       0.4170000000
      2.3960000000       1.9920000000       4.1390000000       0.4170000000
     -8.3740000000     -28.0310000000      -8.1660000000      -0.8340000000
     -8.5540000000     -28.9650000000      -8.2740000000       0.4170000000
     -8.1760000000     -27.7210000000      -9.0500000000       0.4170000000
      2.6409250750     -14.6444118323      -4.1235917167      -0.8340000000
      1.8289019360     -15.1347603326      -4.3913440133       0.4170000000
      2.9532500824     -15.2154506074      -3.3880895248       0.4170000000
    -25.3650000000      -8.8600000000      -6.2720000000      -0.8340000000
    -25.4420000000      -7.9900000000      -5.8800000000       0.4170000000
    -26.1970000000      -8.9930000000      -6.7260000000       0.4170000000
    -19.3960000000     -16.6070000000       9.0060000000      -0.8340000000
    -19.8660000000     -15.9520000000       9.5210000000       0.4170000000
    -19.2530000000     -17.3330000000       9.6130000000       0.4170000000
      2.5652287526     -11.7117512352     -16.5799204436      -0.8340000000
      3.2685671776     -11.5312325212     -17.2385830454       0.4170000000
      2.7762862334     -11.0872097605     -15.8678724550       0.4170000000
      7.6689470462     -18.8412652524     -12.1546881013      -0.8340000000
      8.3328668453     -19.5536986327     -12.1362918188       0.4170000000
      7.3539266392     -18.8410393530     -11.2222773626       0.4170000000
    -11.5604815658      -4.6411797820     -19.2430078162      -0.8340000000
    -12.0415131852      -5.3477908569     -18.8122628685       0.4170000000
    -12.1276220530      -3.8753218279     -19.1533133240       0.4170000000
    -15.9504214842      -7.1375385920     -16.8727692740      -0.8340000000
    -16.5858252443      -6.4622786307     -17.1598638069       0.4170000000