%NprocShared=16
%chk=gaussian.chk
%mem=1gb
#P B3LYP/cc-pVDZ EmpiricalDispersion=GD3
scf(conver=8) iop(4/5=100) nosymm
Charge Force Prop=(Field,Read) pop=mk

Gaussian run for QMMM in genesis

-1 1
 P        -5.0266532387     -10.6983451576      -5.3901927660
 O        -5.6037670366     -10.8655493915      -3.8512689741
 H        -5.4575750537     -11.7686583038      -3.5017994268
 O        -5.7497136927      -9.2902500540      -5.7854466033
 H        -6.7310570295      -9.3557967872      -5.7002656245
 O        -3.5150510524     -10.4410270908      -5.4202361192
 O        -5.5551063021     -11.8605686653      -6.2671194315
 
     -2.6962896766     -14.6159375251     -20.9759513451      -0.8340000000
     -2.7273054821     -14.8114235229     -20.0209346689       0.4170000000
     -1.7789952100     -14.8619566884     -21.1900618405       0.4170000000
      1.0792183095      -4.2187458610     -12.8066261067      -0.8340000000
      0.7808640563      -3.3628090345     -13.1796315396       0.4170000000
      1.9681582908      -3.9650628458     -12.5073877362       0.4170000000
      5.0563321754     -20.5447760511      -5.6893914025      -0.8340000000
      4.2512853288     -20.3409514779      -6.1654029130       0.4170000000
      5.5002703217     -19.7018328849      -5.5966682619       0.4170000000
    -19.6422488810     -15.7501796306      -0.6732844789      -0.8340000000
    -19.9554501736     -15.1981348097       0.0719375987       0.4170000000
    -19.3499056486     -16.5558055948      -0.1927484291       0.4170000000
     -5.5930000000      -9.4960000000      11.9470000000      -0.8340000000
     -4.8730000000      -9.3010000000      11.3470000000       0.4170000000
     -5.2990000000     -10.2650000000      12.4340000000       0.4170000000
    -17.9573730857     -15.7305172843       2.1325516841      -0.8340000000
    -18.7919538593     -16.2305132815       2.2237800337       0.4170000000
    -17.3070671718     -16.4206140035       2.3308420385       0.4170000000
    -20.5030000000      -8.7000000000     -18.3330000000      -0.8340000000
    -20.1000000000      -7.9550000000     -18.7790000000       0.4170000000
    -19.9410000000      -9.4440000000     -18.5520000000       0.4170000000
    -21.7340000000     -19.2730000000      -3.2290000000      -0.8340000000
    -21.4420000000     -19.8120000000      -3.9640000000       0.4170000000
    -21.3640000000     -18.4080000000      -3.4020000000       0.4170000000
     -7.2649129483       2.3628106264       5.3328110653      -0.8340000000
     -7.5204091284       3.0061815184       4.6509219267       0.4170000000
     -7.7446033519       2.6971977273       6.1181475915       0.4170000000
    -20.7830000000     -19.9770000000      -0.1600000000      -0.8340000000
    -21.3390000000     -19.8850000000      -0.9340000000       0.4170000000
    -20.1610000000     -20.6670000000      -0.3920000000       0.4170000000
     -1.4493551338     -18.7801994912       3.8071141739      -0.8340000000
     -1.3195370123     -19.6849599322       3.4550678268       0.4170000000
     -2.2065797109     -18.9637573521       4.3976081561       0.4170000000
    -20.9669631640     -14.2421240871       1.2249805483      -0.8340000000
    -20.7385463973     -13.3140338237       1.4315764619       0.4170000000
    -21.5708788423     -14.0997083416       0.4652353829       0.4170000000
    -22.5140000000     -16.5510000000       6.1750000000      -0.8340000000
    -22.8920000000     -16.5770000000       7.0540000000       0.4170000000
    -22.7990000000     -17.3680000000       5.7660000000       0.4170000000
     -4.0705226695     -13.3141319664       9.3752289324      -0.8340000000
     -4.4512073071     -12.8298402689      10.1391005418       0.4170000000
     -3.5040807014     -12.5981845174       9.0184103314       0.4170000000
     -3.3595925764     -21.5270415013       0.8279679340      -0.8340000000
     -3.8893419293     -22.3536210593       0.8024411005       0.4170000000
     -4.0537359658     -20.8789808603       0.5894424327       0.4170000000
     -9.0903344977     -24.0899012462     -11.3692374991      -0.8340000000
     -8.8477739545     -23.3083114529     -10.8290726958       0.4170000000
     -8.4444172316     -24.7328774905     -11.0163317746       0.4170000000
    -19.2529620485     -13.3553625058     -14.3800432050      -0.8340000000
    -19.2536975898     -13.1073410115     -13.4271021974       0.4170000000
    -20.2055539920     -13.3614414709     -14.5807205700       0.4170000000
    -17.7510000000       1.0020000000     -15.1100000000      -0.8340000000
    -17.1890000000       0.2420000000     -14.9580000000       0.4170000000
    -17.2010000000       1.7550000000     -14.8950000000       0.4170000000
     -3.6953909285      -6.9988642064       4.1184108608      -0.8340000000
     -4.2930486748      -6.2713897022       3.8517529924       0.4170000000
     -3.6516139503      -6.8184786651       5.0869049013       0.4170000000
      5.9960000000     -25.0310000000      -6.8440000000      -0.8340000000
      6.2450000000     -25.2160000000      -7.7490000000       0.4170000000
      6.5630000000     -25.5950000000      -6.3180000000       0.4170000000
    -18.1582021049     -13.1426474531       2.9383253679      -0.8340000000
    -18.1736423449     -14.0791701614       2.6410282315       0.4170000000
    -19.0875926128     -13.0165683985       3.2275013912       0.4170000000
      5.1020000000     -24.2100000000     -13.9410000000      -0.8340000000
      4.2860000000     -24.5860000000     -14.2730000000       0.4170000000
      5.5770000000     -24.9540000000     -13.5710000000       0.4170000000
    -11.7830000000       2.5430000000     -17.5750000000      -0.8340000000
    -11.3150000000       1.9990000000     -18.2080000000       0.4170000000
    -11.5370000000       2.1850000000     -16.7220000000       0.4170000000
      6.7990000000     -21.9970000000       4.9320000000      -0.8340000000
      6.5480000000     -21.0880000000       5.0980000000       0.4170000000
      7.1110000000     -21.9980000000       4.0270000000       0.4170000000
      5.2937507819     -13.1860875547       2.5077152666      -0.8340000000
      6.2042615905     -13.0324942599       2.1736118133       0.4170000000
      5.4720624183     -13.5205821108       3.4119865855       0.4170000000
    -11.1612419067     -27.0983249073      -7.6161209141      -0.8340000000
    -11.3180234598     -27.2457686431      -8.5488115001       0.4170000000
    -10.3485385789     -27.5693218168      -7.4319822378       0.4170000000
    -25.2000000000     -16.9990000000       1.4350000000      -0.8340000000
    -25.5770000000     -17.8140000000       1.1020000000       0.4170000000
    -24.2810000000     -17.2090000000       1.5990000000       0.4170000000
     10.6881600127      -5.7231309784      -6.7420168184      -0.8340000000
      9.8847339619      -5.9135353675      -6.2115970768       0.4170000000
     10.6127261024      -6.3861015497      -7.4557249468       0.4170000000
     -9.2561830436     -12.3891998218       5.9034172897      -0.8340000000
     -9.3718114256     -12.7278250992       4.9892609879       0.4170000000
     -9.5460112484     -11.4619909429       5.7723167916       0.4170000000
    -14.2442372519      -3.7201841670     -19.2742471312      -0.8340000000
    -14.3202557208      -4.0073493347     -20.1841862494       0.4170000000
    -14.3790985740      -2.7731840338     -19.3093898614       0.4170000000
     -8.2784815385     -14.5128173836     -19.5825811576      -0.8340000000
     -7.6629704034     -14.2660763081     -20.2942925445       0.4170000000
     -7.8362970648     -15.3294869991     -19.2485515981       0.4170000000
     -4.1330000000       5.8640000000       5.6920000000      -0.8340000000
     -3.4210000000       5.9530000000       6.3250000000       0.4170000000
     -4.1930000000       4.9220000000       5.5300000000       0.4170000000
    -14.9671785905     -11.6799919451       1.6277764556      -0.8340000000
    -14.5820620981     -10.9430733050       2.1376662915       0.4170000000
    -14.1808073889     -11.9592461344       1.1122908810       0.4170000000
     -5.2948363472     -15.8899513451      -7.9889917041      -0.8340000000
     -4.5606451953     -16.4536441401      -8.2631400883       0.4170000000
     -4.8409649316     -15.0212045926      -7.9221165456       0.4170000000
    -17.8099783068      -4.5450251269     -15.0448685264      -0.8340000000
    -18.2441319731      -5.3627444893     -15.3335337235       0.4170000000
    -18.4833912873      -3.8796049697     -15.2982143813       0.4170000000
      5.7470585089     -16.8092076289      -8.1381115547      -0.8340000000
      6.3896864500     -16.1083117975      -7.8813531649       0.4170000000
      5.0309910266     -16.5621613190      -7.5238487282       0.4170000000
    -11.9690000000     -26.2380000000     -16.1010000000      -0.8340000000
    -12.9220000000     -26.3080000000     -16.0580000000       0.4170000000
    -11.6790000000     -27.0940000000     -16.4170000000       0.4170000000
    -13.7270000000       7.0930000000     -10.9470000000      -0.8340000000
    -13.7370000000       7.9660000000     -11.3390000000       0.4170000000
    -12.8890000000       6.7180000000     -11.2160000000       0.4170000000
      7.5890000000       1.3110000000     -15.5450000000      -0.8340000000
      8.1750000000       1.4020000000     -14.7940000000       0.4170000000
      7.2870000000       2.2020000000     -15.7240000000       0.4170000000
    -17.5940000000     -10.4620000000      10.7710000000      -0.8340000000
    -17.9620000000     -10.2380000000      11.6250000000       0.4170000000
    -16.8110000000      -9.9170000000      10.6960000000       0.4170000000
     -4.4890000000      -0.0580000000     -22.2840000000      -0.8340000000
     -3.9370000000      -0.8150000000     -22.4830000000       0.4170000000
     -5.0980000000      -0.3750000000     -21.6170000000       0.4170000000
    -21.8117400430      -3.6425461110      -5.1270707366      -0.8340000000
    -22.6921551061      -3.8736075223      -5.4232324842       0.4170000000
    -21.2868318602      -4.4235139881      -5.3025484125       0.4170000000
    -18.7740000000      -1.1270000000     -16.7720000000      -0.8340000000
    -19.3860000000      -1.7410000000     -16.3670000000       0.4170000000
    -18.4860000000      -0.5650000000     -16.0530000000       0.4170000000
    -16.1154933867     -23.4796703124      -3.4880648355      -0.8340000000
    -15.5352066458     -22.8762242570      -3.0240044983       0.4170000000
    -15.5676785812     -24.2413862079      -3.6775896978       0.4170000000
      9.5420000000     -21.0270000000     -12.6220000000      -0.8340000000
     10.3070000000     -20.4540000000     -12.5650000000       0.4170000000
      9.6990000000     -21.5590000000     -13.4020000000       0.4170000000
    -12.0996389016      -7.4032419927       3.7362743501      -0.8340000000
    -11.2267756259      -7.0090387276       3.9619445119       0.4170000000
    -12.4045188598      -7.6423466477       4.6472245431       0.4170000000
      9.4390000000      -5.1810000000       4.5990000000      -0.8340000000
      9.4310000000      -5.6600000000       3.7710000000       0.4170000000
      9.3890000000      -5.8610000000       5.2710000000       0.4170000000
      0.9802112028     -16.8263999228       7.3057877554      -0.8340000000
      0.0883156328     -16.9452715150       6.9252402908       0.4170000000
      1.1803134890     -17.7662724351       7.5061299123       0.4170000000
     -2.3670000000     -28.1780000000      -8.6920000000      -0.8340000000
     -2.3860000000     -28.7870000000      -9.4300000000       0.4170000000
     -2.0390000000     -28.6990000000      -7.9590000000       0.4170000000
     -3.8471338502      -6.0373008196       6.6265396986      -0.8340000000
     -4.4677406980      -5.3035999582       6.7807612493       0.4170000000
     -3.5182596388      -6.2271600240       7.5232984528       0.4170000000
    -13.4680000000     -12.0270000000     -23.1910000000      -0.8340000000
    -14.0470000000     -12.6070000000     -22.6960000000       0.4170000000
    -12.6100000000     -12.4490000000     -23.1460000000       0.4170000000
     -1.7318391018     -11.1952260077      -7.2271151785      -0.8340000000
     -1.5737161848     -12.1536497030      -7.0889929319       0.4170000000
     -2.3662794554     -10.9877204086      -6.4975268125       0.4170000000
     -6.0928556312     -17.2504826953     -14.2457967708      -0.8340000000
     -6.6654333322     -16.4868794599     -14.4484323441       0.4170000000
     -6.7224431233     -17.9712310332     -14.0516396099       0.4170000000
    -18.4089701716      -7.0380959938     -11.2567429023      -0.8340000000
    -18.5146901437      -7.4431101533     -12.1421519651       0.4170000000
    -18.1397225087      -6.1270448521     -11.5093353203       0.4170000000
    -10.5559837187       0.4824899873      -9.3998019642      -0.8340000000
    -10.1484573471       1.0053070733      -8.6766425581       0.4170000000
     -9.9099107453      -0.2487446756      -9.4647505680       0.4170000000
    -21.7277528643     -17.6242271976      -8.9408862451      -0.8340000000
    -20.7856871276     -17.8853355697      -8.9586078389       0.4170000000
    -21.6549291306     -16.6671471479      -8.7713207603       0.4170000000
     -5.1370736666     -23.6050150216       0.6162235042      -0.8340000000
     -4.8947427914     -24.4456630352       0.1720694949       0.4170000000
     -5.7786274159     -23.2141286202      -0.0093978980       0.4170000000
    -11.8880000000     -15.4980000000      11.7450000000      -0.8340000000
    -12.7380000000     -15.5450000000      11.3080000000       0.4170000000
    -11.7160000000     -14.5610000000      11.8370000000       0.4170000000
      9.7279474929     -12.1619551953      -7.4831161324      -0.8340000000
      9.7409214243     -12.9573272741      -6.9174771246       0.4170000000
     10.2427533053     -11.5352463248      -6.9245048533       0.4170000000
     -2.9129604361     -20.8797037914     -13.4003916819      -0.8340000000
     -1.9646589255     -21.0603594708     -13.2190638088       0.4170000000
     -2.8405835833     -19.9401655334     -13.6844408342       0.4170000000
     -0.0800000000       2.7290000000     -16.4170000000      -0.8340000000
      0.8110000000       2.4130000000     -16.5680000000       0.4170000000
     -0.0200000000       3.2370000000     -15.6080000000       0.4170000000
    -15.5828298554      -9.2249294559      -7.9582134918      -0.8340000000
    -14.8194718434      -9.8375388622      -8.0366368163       0.4170000000
    -16.2132875882      -9.7938473162      -7.4587031634       0.4170000000
     -9.6431530474     -13.0216979330       3.2672590782      -0.8340000000
    -10.4089454463     -12.4108354705       3.2568434511       0.4170000000
     -9.2434988021     -12.7952683294       2.4013952285       0.4170000000
     -6.9900000000       8.5940000000     -10.5640000000      -0.8340000000
     -7.2530000000       7.7260000000     -10.2590000000       0.4170000000
     -7.7750000000       8.9510000000     -10.9790000000       0.4170000000
     -9.4992941367     -16.2000226153      -4.6790036847      -0.8340000000
     -9.0930702665     -16.4582783780      -3.8247923041       0.4170000000
     -8.6972474875     -15.9486434129      -5.1787409078       0.4170000000
     -5.6390000000     -16.7630000000      12.5490000000      -0.8340000000
     -5.4510000000     -16.0280000000      11.9660000000       0.4170000000
     -4.7780000000     -17.0980000000      12.7990000000       0.4170000000
      7.9770000000      -3.4280000000       7.8400000000      -0.8340000000
      8.6330000000      -2.7740000000       7.6000000000       0.4170000000
      7.5300000000      -3.6330000000       7.0190000000       0.4170000000
    -17.1330444788     -10.1176955395       6.0288667172      -0.8340000000
    -17.0539771981     -11.0441712434       5.7168452175       0.4170000000
    -16.7239783003      -9.6087308227       5.2984323086       0.4170000000
    -13.8067145988      -9.3809124608       2.8071965884      -0.8340000000
    -14.5781370071      -9.1380658021       3.3743930401       0.4170000000
    -13.1987335128      -8.6512198643       3.0508300003       0.4170000000
      9.0640000000     -11.5730000000       5.2100000000      -0.8340000000
      9.2700000000     -11.9060000000       6.0840000000       0.4170000000
      9.2490000000     -12.3070000000       4.6240000000       0.4170000000
    -18.5387719227     -16.0535198962     -14.6741855799      -0.8340000000
    -18.6763655562     -15.0817993620     -14.6289654867       0.4170000000
    -19.3397089234     -16.3631131771     -15.1453033665       0.4170000000
     -4.9460000000       7.1710000000       1.2470000000      -0.8340000000
     -5.0380000000       7.0520000000       2.1920000000       0.4170000000
     -5.6590000000       7.7640000000       1.0100000000       0.4170000000
     -1.5504777110     -17.3061740219       6.2564175546      -0.8340000000
     -1.2432898146     -17.5004133053       5.3516545210       0.4170000000
     -2.2422365910     -17.9931695057       6.3235692855       0.4170000000
     10.1910000000     -18.5640000000      -8.9970000000      -0.8340000000
     10.2560000000     -19.2990000000      -9.6060000000       0.4170000000
      9.6800000000     -17.9060000000      -9.4680000000       0.4170000000
     -4.7980000000      -4.5460000000      14.4130000000      -0.8340000000
     -5.0430000000      -5.0620000000      15.1810000000       0.4170000000
     -4.5650000000      -5.1970000000      13.7510000000       0.4170000000
     -3.9016900874      -8.8039769599     -21.7840183524      -0.8340000000
     -3.5666888600      -9.4161053268     -21.1288047384       0.4170000000
     -3.2648645573      -8.0894065461     -21.7926327487       0.4170000000
    -25.9690000000     -18.4970000000      -1.7330000000      -0.8340000000
    -26.2680000000     -18.2900000000      -2.6180000000       0.4170000000
    -25.1230000000     -18.0560000000      -1.6570000000       0.4170000000
    -15.5918962703      -3.4338025700      -7.1675864511      -0.8340000000
    -15.6791202255      -3.7287654438      -8.0969400731       0.4170000000
    -14.7048289336      -3.0200730101      -7.1862620138       0.4170000000
    -25.1130000000     -15.3660000000      -0.8340000000      -0.8340000000
    -25.4190000000     -15.7920000000      -1.6350000000       0.4170000000
    -25.1990000000     -16.0380000000      -0.1570000000       0.4170000000
     -7.6872600205     -19.7081120609     -16.2281627182      -0.8340000000
     -6.9393799333     -19.3106468948     -16.6958659979       0.4170000000
     -7.3767989952     -19.6888043672     -15.2952376166       0.4170000000
    -11.2248218885      -0.3896135429      -4.7296958197      -0.8340000000
    -10.5527719278      -0.9313648662      -5.1858195839       0.4170000000
    -11.8729927416      -1.0780981596      -4.4778387784       0.4170000000
      1.5271549690      -0.3963672824     -10.8267340463      -0.8340000000
      0.6127768087      -0.3974463149     -11.1932173184       0.4170000000
      1.6835737141       0.5785664532     -10.8377663243       0.4170000000
     -5.1330448411       5.6885151307      -3.1460268840      -0.8340000000
     -4.3006980457       5.1947392808      -2.9975041039       0.4170000000
     -5.7844067170       4.9575956582      -3.0690842727       0.4170000000
      5.3170000000       0.2840000000     -16.9880000000      -0.8340000000
      4.5690000000       0.8710000000     -17.1010000000       0.4170000000
      5.8920000000       0.7440000000     -16.3760000000       0.4170000000
     -9.8520000000       8.8440000000       1.8950000000      -0.8340000000
    -10.7200000000       9.0520000000       2.2430000000       0.4170000000
     -9.8490000000       7.8910000000       1.8120000000       0.4170000000
    -18.8465655752     -22.1459401656      -7.9884298097      -0.8340000000
    -18.8936850103     -21.5712564683      -7.2243943086       0.4170000000
    -19.7591765153     -22.3531620419      -8.1895074214       0.4170000000
      0.9530000000      -4.3560000000      11.4070000000      -0.8340000000
      0.8480000000      -3.4320000000      11.1790000000       0.4170000000
      1.6480000000      -4.3630000000      12.0650000000       0.4170000000
     -0.7819785325       0.8508616253       1.1702126887      -0.8340000000
     -1.0367896343       0.7851069255       2.1200624994       0.4170000000
     -1.3507471467       1.6150565942       0.9094064265       0.4170000000
    -19.4450000000     -19.8340000000     -18.6330000000      -0.8340000000
    -18.9380000000     -19.1450000000     -18.2030000000       0.4170000000
    -20.3540000000     -19.6420000000     -18.4030000000       0.4170000000
    -16.8231496444     -16.7888030691     -10.7659404328      -0.8340000000
    -16.5412802315     -17.7207589680     -10.8423495862       0.4170000000
    -16.1375096239     -16.3189075546     -11.2859697439       0.4170000000
     -4.2228898875       0.3857763462     -10.1733958074      -0.8340000000
     -5.1546800959       0.1183839329     -10.2970926792       0.4170000000
     -4.2859458075       1.3284910460     -10.4196744569       0.4170000000
    -22.2890926528      -6.6294374720      -7.7982551729      -0.8340000000
    -21.9427887647      -6.5535027852      -6.8892631620       0.4170000000
    -21.5084919339      -7.0048446631      -8.2534166600       0.4170000000
     10.4640000000      -3.2980000000     -17.0380000000      -0.8340000000
      9.9960000000      -2.6400000000     -16.5240000000       0.4170000000
      9.8830000000      -4.0590000000     -17.0390000000       0.4170000000
    -14.0206223466     -14.9322072965       5.0193380596      -0.8340000000
    -14.5542808258     -15.4929369823       4.4222933586       0.4170000000
    -13.5176434042     -14.4369160234       4.3369333116       0.4170000000
     -7.4900870691       4.9346432953      -6.2903413548      -0.8340000000
     -6.9335044469       4.1235725099      -6.2606940034       0.4170000000
     -8.0208644736       4.8177589553      -5.4751060136       0.4170000000
      0.4480000000     -27.6550000000       4.3590000000      -0.8340000000
      0.0130000000     -28.5030000000       4.2820000000       0.4170000000
      0.1600000000     -27.1660000000       3.5880000000       0.4170000000
     -0.8670000000      -3.3690000000     -22.8590000000      -0.8340000000
     -0.3210000000      -2.8350000000     -23.4360000000       0.4170000000
     -0.3130000000      -4.1140000000     -22.6260000000       0.4170000000
     -5.3020590283      -4.8598594610       3.4819322243      -0.8340000000
     -6.2017487526      -5.1578363661       3.2199619460       0.4170000000
     -5.0023063767      -4.5001596989       2.6163667692       0.4170000000
    -21.3850000000      -1.0290000000       5.9340000000      -0.8340000000
    -20.4790000000      -0.9550000000       5.6330000000       0.4170000000
    -21.3280000000      -0.9590000000       6.8870000000       0.4170000000
      1.7752078656     -18.6310769232      -2.3558346943      -0.8340000000
      2.0234257597     -18.8604956144      -3.2721486995       0.4170000000
      0.8172651691     -18.8107301683      -2.3979379333       0.4170000000
     -1.0773993637     -10.5885766270       6.6403869101      -0.8340000000
     -0.7895330234     -10.4423445444       5.7149578347       0.4170000000
     -1.0360477914     -11.5659000919       6.6936430359       0.4170000000
      9.9160000000     -17.2030000000     -17.4370000000      -0.8340000000
     10.5000000000     -17.1530000000     -16.6800000000       0.4170000000
     10.4710000000     -17.5260000000     -18.1470000000       0.4170000000
      0.7548903765     -10.1865702687      -7.7112833744      -0.8340000000
     -0.1283887386     -10.6183334622      -7.6483153554       0.4170000000
      1.1576057922     -10.4901604187      -6.8694725178       0.4170000000
    -13.3133819735      -3.8371055239      -0.3992150402      -0.8340000000
    -13.7335198052      -3.2383704389      -1.0415161277       0.4170000000
    -13.4463127163      -3.3354457621       0.4322965938       0.4170000000
      2.5280000000      -0.2490000000       9.9690000000      -0.8340000000
      3.3950000000      -0.6560000000       9.9690000000       0.4170000000
      2.6960000000       0.6730000000       9.7720000000       0.4170000000
      6.5970000000     -12.4080000000      12.0930000000      -0.8340000000
      5.8020000000     -12.6770000000      11.6310000000       0.4170000000
      6.3300000000     -12.3380000000      13.0090000000       0.4170000000
    -22.6540000000      -5.9510000000       3.8400000000      -0.8340000000
    -22.2600000000      -6.6000000000       3.2570000000       0.4170000000
    -22.1030000000      -5.1750000000       3.7420000000       0.4170000000
     10.9000000000     -23.7710000000     -10.1260000000      -0.8340000000
     10.5590000000     -23.1230000000      -9.5100000000       0.4170000000
     11.8490000000     -23.7350000000     -10.0110000000       0.4170000000
    -21.4291189193      -7.9827535928     -12.6368099300      -0.8340000000
    -21.9836317196      -8.5343375353     -13.1886274259       0.4170000000
    -20.5405867208      -8.1400070855     -12.9562057837       0.4170000000
    -19.2120492681     -12.7281778563     -11.7023191409      -0.8340000000
    -19.5899677315     -12.3349776026     -10.8813164118       0.4170000000
    -18.2865239037     -12.4157665202     -11.5960959570       0.4170000000
     -2.8547190667       1.4011427307      -3.6149645934      -0.8340000000
     -2.8918322729       0.9071795961      -4.4630208969       0.4170000000
     -1.9838508412       1.0861936495      -3.2914467025       0.4170000000
     -1.8310000000      -1.0780000000     -21.3540000000      -0.8340000000
     -1.0370000000      -0.5570000000     -21.4780000000       0.4170000000
     -1.7630000000      -1.7770000000     -22.0030000000       0.4170000000
    -19.6120000000     -22.3050000000     -15.9660000000      -0.8340000000
    -18.8090000000     -22.7630000000     -16.2180000000       0.4170000000
    -19.3160000000     -21.4380000000     -15.6900000000       0.4170000000
    -11.9288861445     -21.3615706698     -15.9436362752      -0.8340000000
    -10.9679785964     -21.4415619425     -16.1283565027       0.4170000000
    -12.0538330543     -22.1888144189     -15.4391321661       0.4170000000
     -7.9030000000     -12.4850000000     -22.8610000000      -0.8340000000
     -7.3680000000     -12.7750000000     -23.6010000000       0.4170000000
     -7.3960000000     -12.7330000000     -22.0880000000       0.4170000000
    -15.6437227645      -0.7714654396     -14.6064853806      -0.8340000000
    -14.8896130305      -0.7345593071     -15.2203946030       0.4170000000
    -15.2028274182      -1.1849288516     -13.8383892680       0.4170000000
     -5.0382036074     -24.7292751653       3.0967494623      -0.8340000000
     -5.2076629415     -24.2727397485       2.2431473000       0.4170000000
     -5.9473395376     -24.9719730458       3.3536135306       0.4170000000
      0.3710000000       4.8080000000     -13.5320000000      -0.8340000000
      0.8550000000       5.2820000000     -14.2080000000       0.4170000000
     -0.5490000000       4.9300000000     -13.7650000000       0.4170000000
      4.1834031839      -8.0104116809       1.7533208851      -0.8340000000
      4.8063325105      -7.3087398114       2.0231167587       0.4170000000
      4.3309616052      -8.6769448420       2.4587606300       0.4170000000
    -11.7170000000     -15.1930000000     -22.4150000000      -0.8340000000
    -10.8950000000     -15.6220000000     -22.1770000000       0.4170000000
    -11.4520000000     -14.3420000000     -22.7650000000       0.4170000000
      1.6120000000       1.6970000000       4.6020000000      -0.8340000000
      0.9040000000       2.2290000000       4.2400000000       0.4170000000
      2.3960000000       1.9920000000       4.1390000000       0.4170000000
     -8.3740000000     -28.0310000000      -8.1660000000      -0.8340000000
     -8.5540000000     -28.9650000000      -8.2740000000       0.4170000000
     -8.1760000000     -27.7210000000      -9.0500000000       0.4170000000
      2.6414361079     -14.6446904003      -4.1230465362      -0.8340000000
      1.8294640336     -15.1352534650      -4.3905918544       0.4170000000
      2.9536743163     -15.2153988331      -3.3872730795       0.4170000000
    -25.3650000000      -8.8600000000      -6.2720000000      -0.8340000000
    -25.4420000000      -7.9900000000      -5.8800000000       0.4170000000
    -26.1970000000      -8.9930000000      -6.7260000000       0.4170000000
    -19.3960000000     -16.6070000000       9.0060000000      -0.8340000000
    -19.8660000000     -15.9520000000       9.5210000000       0.4170000000
    -19.2530000000     -17.3330000000       9.6130000000       0.4170000000
      2.5651742802     -11.7115703775     -16.5796757551      -0.8340000000
      3.2685435455     -11.5311932267     -17.2383376204       0.4170000000
      2.7761736569     -11.0868604590     -15.8677579174       0.4170000000
      7.6689596271     -18.8414017063     -12.1547012769      -0.8340000000
      8.3328810413     -19.5538425334     -12.1363737540       0.4170000000
      7.3539538343     -18.8412599895     -11.2222950562       0.4170000000
    -11.5604815658      -4.6411797820     -19.2430078162      -0.8340000000
    -12.0415131852      -5.3477908569     -18.8122628685       0.4170000000
    -12.1276220530      -3.8753218279     -19.1533133240       0.4170000000
    -15.9487200086      -7.1361269537     -16.8702283670      -0.8340000000
    -16.5847744941      -6.4616887133     -17.1577168345       0.4170000000