%chk=#basename#.chk
%NprocShared=8
%mem=1GB
#P B3LYP/CC-PVDZ SCF=TIGHT  NOSYMMETRY 

Energy at B3LYP/cc-pVDZ

0  1  
#coordinate#

