%NprocShared=8
%chk=gaussian.chk
%mem=1gb
#P B3LYP/cc-pVDZ EmpiricalDispersion=GD3
scf(conver=8) iop(4/5=100) nosymm
Charge Force

Gaussian run for QMMM in genesis

-1 1
 P        -5.0080391098     -10.7100874840      -5.4049840077
 O        -5.5917577717     -10.8701273058      -3.8482041776
 H        -5.4704251217     -11.7797007838      -3.5077877954
 O        -5.7443884349      -9.2898200042      -5.7809237376
 H        -6.7270357318      -9.3720660103      -5.7016675717
 O        -3.4905018201     -10.4492223392      -5.4097054505
 O        -5.5691421532     -11.8784381332      -6.2641995618
 
     -2.6962908072     -14.6159453073     -20.9760067515      -0.8340000000
     -2.7272441489     -14.8113356795     -20.0209663867       0.4170000000
     -1.7789809114     -14.8618953215     -21.1901264826       0.4170000000
      1.0791009928      -4.2186827721     -12.8065687936      -0.8340000000
      0.7808609416      -3.3627387265     -13.1796726149       0.4170000000
      1.9681258751      -3.9651327542     -12.5074823324       0.4170000000
      5.0563321754     -20.5447760511      -5.6893914025      -0.8340000000
      4.2512853288     -20.3409514779      -6.1654029130       0.4170000000
      5.5002703217     -19.7018328849      -5.5966682619       0.4170000000
    -19.6422015239     -15.7502266146      -0.6734070742      -0.8340000000
    -19.9553224722     -15.1981332587       0.0717975331       0.4170000000
    -19.3497515673     -16.5558002263      -0.1928284186       0.4170000000
     -5.5930000000      -9.4960000000      11.9470000000      -0.8340000000
     -4.8730000000      -9.3010000000      11.3470000000       0.4170000000
     -5.2990000000     -10.2650000000      12.4340000000       0.4170000000
    -17.9572154818     -15.7308242813       2.1324617674      -0.8340000000
    -18.7919096473     -16.2306340330       2.2236662354       0.4170000000
    -17.3070951006     -16.4211493145       2.3305558004       0.4170000000
    -20.5030000000      -8.7000000000     -18.3330000000      -0.8340000000
    -20.1000000000      -7.9550000000     -18.7790000000       0.4170000000
    -19.9410000000      -9.4440000000     -18.5520000000       0.4170000000
    -21.7340000000     -19.2730000000      -3.2290000000      -0.8340000000
    -21.4420000000     -19.8120000000      -3.9640000000       0.4170000000
    -21.3640000000     -18.4080000000      -3.4020000000       0.4170000000
     -7.2649485898       2.3627175390       5.3328148927      -0.8340000000
     -7.5203950048       3.0061900616       4.6509999746       0.4170000000
     -7.7445625632       2.6970699172       6.1182106505       0.4170000000
    -20.7830000000     -19.9770000000      -0.1600000000      -0.8340000000
    -21.3390000000     -19.8850000000      -0.9340000000       0.4170000000
    -20.1610000000     -20.6670000000      -0.3920000000       0.4170000000
     -1.4493125195     -18.7801474491       3.8072050602      -0.8340000000
     -1.3195172186     -19.6848759699       3.4550790908       0.4170000000
     -2.2066113355     -18.9637180523       4.3976041481       0.4170000000
    -20.9669442043     -14.2421038074       1.2249566962      -0.8340000000
    -20.7383323832     -13.3140052355       1.4313256400       0.4170000000
    -21.5706934334     -14.0997419245       0.4650653979       0.4170000000
    -22.5140000000     -16.5510000000       6.1750000000      -0.8340000000
    -22.8920000000     -16.5770000000       7.0540000000       0.4170000000
    -22.7990000000     -17.3680000000       5.7660000000       0.4170000000
     -4.0703877391     -13.3142169740       9.3753063779      -0.8340000000
     -4.4510851249     -12.8299009375      10.1391531629       0.4170000000
     -3.5039651319     -12.5982637782       9.0184590074       0.4170000000
     -3.3595805228     -21.5269949926       0.8280683132      -0.8340000000
     -3.8892883051     -22.3535960680       0.8024359829       0.4170000000
     -4.0537342886     -20.8789501312       0.5895229419       0.4170000000
     -9.0902938892     -24.0898529003     -11.3692035594      -0.8340000000
     -8.8476696777     -23.3082168597     -10.8291460766       0.4170000000
     -8.4443689049     -24.7328108680     -11.0162587339       0.4170000000
    -19.2529534626     -13.3555051611     -14.3800773466      -0.8340000000
    -19.2537415916     -13.1073643650     -13.4271708449       0.4170000000
    -20.2055374313     -13.3614879879     -14.5808067572       0.4170000000
    -17.7510000000       1.0020000000     -15.1100000000      -0.8340000000
    -17.1890000000       0.2420000000     -14.9580000000       0.4170000000
    -17.2010000000       1.7550000000     -14.8950000000       0.4170000000
     -3.6953054090      -6.9985658532       4.1181510024      -0.8340000000
     -4.2931381607      -6.2711536697       3.8516614564       0.4170000000
     -3.6515547543      -6.8183742060       5.0866691925       0.4170000000
      5.9960000000     -25.0310000000      -6.8440000000      -0.8340000000
      6.2450000000     -25.2160000000      -7.7490000000       0.4170000000
      6.5630000000     -25.5950000000      -6.3180000000       0.4170000000
    -18.1583211122     -13.1429033510       2.9380803528      -0.8340000000
    -18.1737408512     -14.0794183818       2.6407707839       0.4170000000
    -19.0877232907     -13.0168134182       3.2272089180       0.4170000000
      5.1020000000     -24.2100000000     -13.9410000000      -0.8340000000
      4.2860000000     -24.5860000000     -14.2730000000       0.4170000000
      5.5770000000     -24.9540000000     -13.5710000000       0.4170000000
    -11.7830000000       2.5430000000     -17.5750000000      -0.8340000000
    -11.3150000000       1.9990000000     -18.2080000000       0.4170000000
    -11.5370000000       2.1850000000     -16.7220000000       0.4170000000
      6.7990000000     -21.9970000000       4.9320000000      -0.8340000000
      6.5480000000     -21.0880000000       5.0980000000       0.4170000000
      7.1110000000     -21.9980000000       4.0270000000       0.4170000000
      5.2937106649     -13.1860022589       2.5077153956      -0.8340000000
      6.2042248308     -13.0325347050       2.1735601507       0.4170000000
      5.4720245262     -13.5206343929       3.4119371744       0.4170000000
    -11.1612419067     -27.0983249073      -7.6161209141      -0.8340000000
    -11.3180234598     -27.2457686431      -8.5488115001       0.4170000000
    -10.3485385789     -27.5693218168      -7.4319822378       0.4170000000
    -25.2000000000     -16.9990000000       1.4350000000      -0.8340000000
    -25.5770000000     -17.8140000000       1.1020000000       0.4170000000
    -24.2810000000     -17.2090000000       1.5990000000       0.4170000000
     10.6881535308      -5.7230935379      -6.7420394761      -0.8340000000
      9.8847823730      -5.9135405370      -6.2115549318       0.4170000000
     10.6127421987      -6.3861259702      -7.4556906569       0.4170000000
     -9.2558343579     -12.3900548167       5.9027067650      -0.8340000000
     -9.3714454880     -12.7287074792       4.9885655591       0.4170000000
     -9.5459721683     -11.4629360674       5.7715904592       0.4170000000
    -14.2442372519      -3.7201841670     -19.2742471312      -0.8340000000
    -14.3202557208      -4.0073493347     -20.1841862494       0.4170000000
    -14.3790985740      -2.7731840338     -19.3093898614       0.4170000000
     -8.2786029629     -14.5129642423     -19.5826726702      -0.8340000000
     -7.6630561835     -14.2662495812     -20.2943636439       0.4170000000
     -7.8363403307     -15.3295447791     -19.2485331700       0.4170000000
     -4.1330000000       5.8640000000       5.6920000000      -0.8340000000
     -3.4210000000       5.9530000000       6.3250000000       0.4170000000
     -4.1930000000       4.9220000000       5.5300000000       0.4170000000
    -14.9674080976     -11.6802798021       1.6271121191      -0.8340000000
    -14.5823459782     -10.9433563067       2.1370476941       0.4170000000
    -14.1810937884     -11.9592441329       1.1113955128       0.4170000000
     -5.2945161027     -15.8910319858      -7.9888552445      -0.8340000000
     -4.5602679843     -16.4547375002      -8.2628411517       0.4170000000
     -4.8403532326     -15.0222869525      -7.9230357140       0.4170000000
    -17.8094248777      -4.5437389288     -15.0438839914      -0.8340000000
    -18.2431981058      -5.3615766404     -15.3326996458       0.4170000000
    -18.4829758495      -3.8785673095     -15.2975179222       0.4170000000
      5.7471714274     -16.8092761447      -8.1380984133      -0.8340000000
      6.3897168876     -16.1083148958      -7.8813056814       0.4170000000
      5.0310659612     -16.5623035046      -7.5238564080       0.4170000000
    -11.9690000000     -26.2380000000     -16.1010000000      -0.8340000000
    -12.9220000000     -26.3080000000     -16.0580000000       0.4170000000
    -11.6790000000     -27.0940000000     -16.4170000000       0.4170000000
    -13.7270000000       7.0930000000     -10.9470000000      -0.8340000000
    -13.7370000000       7.9660000000     -11.3390000000       0.4170000000
    -12.8890000000       6.7180000000     -11.2160000000       0.4170000000
      7.5890000000       1.3110000000     -15.5450000000      -0.8340000000
      8.1750000000       1.4020000000     -14.7940000000       0.4170000000
      7.2870000000       2.2020000000     -15.7240000000       0.4170000000
    -17.5940000000     -10.4620000000      10.7710000000      -0.8340000000
    -17.9620000000     -10.2380000000      11.6250000000       0.4170000000
    -16.8110000000      -9.9170000000      10.6960000000       0.4170000000
     -4.4890000000      -0.0580000000     -22.2840000000      -0.8340000000
     -3.9370000000      -0.8150000000     -22.4830000000       0.4170000000
     -5.0980000000      -0.3750000000     -21.6170000000       0.4170000000
    -21.8117400430      -3.6425461110      -5.1270707366      -0.8340000000
    -22.6921551061      -3.8736075223      -5.4232324842       0.4170000000
    -21.2868318602      -4.4235139881      -5.3025484125       0.4170000000
    -18.7740000000      -1.1270000000     -16.7720000000      -0.8340000000
    -19.3860000000      -1.7410000000     -16.3670000000       0.4170000000
    -18.4860000000      -0.5650000000     -16.0530000000       0.4170000000
    -16.1154933867     -23.4796703124      -3.4880648355      -0.8340000000
    -15.5352066458     -22.8762242570      -3.0240044983       0.4170000000
    -15.5676785812     -24.2413862079      -3.6775896978       0.4170000000
      9.5420000000     -21.0270000000     -12.6220000000      -0.8340000000
     10.3070000000     -20.4540000000     -12.5650000000       0.4170000000
      9.6990000000     -21.5590000000     -13.4020000000       0.4170000000
    -12.0996483762      -7.4036263839       3.7360134838      -0.8340000000
    -11.2268491259      -7.0093530652       3.9618387838       0.4170000000
    -12.4046153676      -7.6428705309       4.6468902103       0.4170000000
      9.4390000000      -5.1810000000       4.5990000000      -0.8340000000
      9.4310000000      -5.6600000000       3.7710000000       0.4170000000
      9.3890000000      -5.8610000000       5.2710000000       0.4170000000
      0.9802742324     -16.8264452032       7.3058787614      -0.8340000000
      0.0884091101     -16.9453584990       6.9252760881       0.4170000000
      1.1804111394     -17.7663199307       7.5061847071       0.4170000000
     -2.3670000000     -28.1780000000      -8.6920000000      -0.8340000000
     -2.3860000000     -28.7870000000      -9.4300000000       0.4170000000
     -2.0390000000     -28.6990000000      -7.9590000000       0.4170000000
     -3.8471014169      -6.0371545464       6.6264182859      -0.8340000000
     -4.4677833713      -5.3035368644       6.7807387075       0.4170000000
     -3.5182627758      -6.2271469860       7.5231642859       0.4170000000
    -13.4680000000     -12.0270000000     -23.1910000000      -0.8340000000
    -14.0470000000     -12.6070000000     -22.6960000000       0.4170000000
    -12.6100000000     -12.4490000000     -23.1460000000       0.4170000000
     -1.7259164018     -11.1998475522      -7.2357299916      -0.8340000000
     -1.5696341356     -12.1574549618      -7.0929678108       0.4170000000
     -2.3579966120     -10.9898061139      -6.5049536550       0.4170000000
     -6.0927799720     -17.2504392625     -14.2459443959      -0.8340000000
     -6.6653893775     -16.4868746043     -14.4486553341       0.4170000000
     -6.7223200106     -17.9712370477     -14.0518259630       0.4170000000
    -18.4088620138      -7.0370324611     -11.2563290222      -0.8340000000
    -18.5146400133      -7.4418102881     -12.1418351918       0.4170000000
    -18.1392537253      -6.1260172579     -11.5086642354       0.4170000000
    -10.5556531352       0.4825666000      -9.3999059768      -0.8340000000
    -10.1480863524       1.0053101913      -8.6767123519       0.4170000000
     -9.9096610230      -0.2487423358      -9.4648217689       0.4170000000
    -21.7279280588     -17.6241749402      -8.9409389412      -0.8340000000
    -20.7858773288     -17.8853354141      -8.9586773554       0.4170000000
    -21.6550712750     -16.6670954700      -8.7713574208       0.4170000000
     -5.1369966204     -23.6050835178       0.6161295543      -0.8340000000
     -4.8946036318     -24.4457056998       0.1719598330       0.4170000000
     -5.7784051071     -23.2141073628      -0.0095890690       0.4170000000
    -11.8880000000     -15.4980000000      11.7450000000      -0.8340000000
    -12.7380000000     -15.5450000000      11.3080000000       0.4170000000
    -11.7160000000     -14.5610000000      11.8370000000       0.4170000000
      9.7278688541     -12.1619004044      -7.4830640011      -0.8340000000
      9.7408954214     -12.9573176439      -6.9174963283       0.4170000000
     10.2427786592     -11.5352511685      -6.9244692632       0.4170000000
     -2.9128987868     -20.8796922467     -13.4004025433      -0.8340000000
     -1.9646118522     -21.0603487597     -13.2189876193       0.4170000000
     -2.8405033248     -19.9401267212     -13.6843578802       0.4170000000
     -0.0800000000       2.7290000000     -16.4170000000      -0.8340000000
      0.8110000000       2.4130000000     -16.5680000000       0.4170000000
     -0.0200000000       3.2370000000     -15.6080000000       0.4170000000
    -15.5825336772      -9.2241951266      -7.9576224665      -0.8340000000
    -14.8192539027      -9.8368881092      -8.0361857767       0.4170000000
    -16.2132538984      -9.7932412918      -7.4585915367       0.4170000000
     -9.6430863948     -13.0222514614       3.2665347343      -0.8340000000
    -10.4089335683     -12.4114558357       3.2560934723       0.4170000000
     -9.2433794214     -12.7958124354       2.4007251205       0.4170000000
     -6.9900000000       8.5940000000     -10.5640000000      -0.8340000000
     -7.2530000000       7.7260000000     -10.2590000000       0.4170000000
     -7.7750000000       8.9510000000     -10.9790000000       0.4170000000
     -9.4996187393     -16.2008444691      -4.6791914518      -0.8340000000
     -9.0932320072     -16.4582142142      -3.8247799907       0.4170000000
     -8.6975526624     -15.9499323392      -5.1791718864       0.4170000000
     -5.6390000000     -16.7630000000      12.5490000000      -0.8340000000
     -5.4510000000     -16.0280000000      11.9660000000       0.4170000000
     -4.7780000000     -17.0980000000      12.7990000000       0.4170000000
      7.9770000000      -3.4280000000       7.8400000000      -0.8340000000
      8.6330000000      -2.7740000000       7.6000000000       0.4170000000
      7.5300000000      -3.6330000000       7.0190000000       0.4170000000
    -17.1329990161     -10.1178781910       6.0288636283      -0.8340000000
    -17.0540854490     -11.0443765807       5.7168503144       0.4170000000
    -16.7238273037      -9.6089937251       5.2984368603       0.4170000000
    -13.8068486463      -9.3812159931       2.8064926891      -0.8340000000
    -14.5781495265      -9.1383623711       3.3738481836       0.4170000000
    -13.1987786393      -8.6515979549       3.0501143686       0.4170000000
      9.0640000000     -11.5730000000       5.2100000000      -0.8340000000
      9.2700000000     -11.9060000000       6.0840000000       0.4170000000
      9.2490000000     -12.3070000000       4.6240000000       0.4170000000
    -18.5387206415     -16.0536207539     -14.6742764926      -0.8340000000
    -18.6762956765     -15.0819033534     -14.6289864649       0.4170000000
    -19.3397180679     -16.3631598065     -15.1453402497       0.4170000000
     -4.9460000000       7.1710000000       1.2470000000      -0.8340000000
     -5.0380000000       7.0520000000       2.1920000000       0.4170000000
     -5.6590000000       7.7640000000       1.0100000000       0.4170000000
     -1.5504443039     -17.3062130384       6.2564898519      -0.8340000000
     -1.2432436447     -17.5004285381       5.3517277641       0.4170000000
     -2.2422149216     -17.9932035913       6.3236037388       0.4170000000
     10.1910000000     -18.5640000000      -8.9970000000      -0.8340000000
     10.2560000000     -19.2990000000      -9.6060000000       0.4170000000
      9.6800000000     -17.9060000000      -9.4680000000       0.4170000000
     -4.7980000000      -4.5460000000      14.4130000000      -0.8340000000
     -5.0430000000      -5.0620000000      15.1810000000       0.4170000000
     -4.5650000000      -5.1970000000      13.7510000000       0.4170000000
     -3.9016900874      -8.8039769599     -21.7840183524      -0.8340000000
     -3.5666888600      -9.4161053268     -21.1288047384       0.4170000000
     -3.2648645573      -8.0894065461     -21.7926327487       0.4170000000
    -25.9690000000     -18.4970000000      -1.7330000000      -0.8340000000
    -26.2680000000     -18.2900000000      -2.6180000000       0.4170000000
    -25.1230000000     -18.0560000000      -1.6570000000       0.4170000000
    -15.5912773526      -3.4328476292      -7.1668036350      -0.8340000000
    -15.6784144263      -3.7277949670      -8.0961731451       0.4170000000
    -14.7042272067      -3.0190847062      -7.1854213694       0.4170000000
    -25.1130000000     -15.3660000000      -0.8340000000      -0.8340000000
    -25.4190000000     -15.7920000000      -1.6350000000       0.4170000000
    -25.1990000000     -16.0380000000      -0.1570000000       0.4170000000
     -7.6871993555     -19.7082237752     -16.2282648602      -0.8340000000
     -6.9394056161     -19.3106929479     -16.6960490136       0.4170000000
     -7.3767433462     -19.6887407293     -15.2953423714       0.4170000000
    -11.2244337434      -0.3894729425      -4.7293812879      -0.8340000000
    -10.5524021604      -0.9313341521      -5.1854075193       0.4170000000
    -11.8726451918      -1.0778979054      -4.4774696753       0.4170000000
      1.5271123306      -0.3963479875     -10.8266780728      -0.8340000000
      0.6127781959      -0.3974198586     -11.1932764875       0.4170000000
      1.6836356119       0.5785620179     -10.8378476360       0.4170000000
     -5.1331042240       5.6885831210      -3.1462239069      -0.8340000000
     -4.3007587124       5.1948431480      -2.9975594685       0.4170000000
     -5.7844383520       4.9576463615      -3.0692044383       0.4170000000
      5.3170000000       0.2840000000     -16.9880000000      -0.8340000000
      4.5690000000       0.8710000000     -17.1010000000       0.4170000000
      5.8920000000       0.7440000000     -16.3760000000       0.4170000000
     -9.8520000000       8.8440000000       1.8950000000      -0.8340000000
    -10.7200000000       9.0520000000       2.2430000000       0.4170000000
     -9.8490000000       7.8910000000       1.8120000000       0.4170000000
    -18.8465655752     -22.1459401656      -7.9884298097      -0.8340000000
    -18.8936850103     -21.5712564683      -7.2243943086       0.4170000000
    -19.7591765153     -22.3531620419      -8.1895074214       0.4170000000
      0.9530000000      -4.3560000000      11.4070000000      -0.8340000000
      0.8480000000      -3.4320000000      11.1790000000       0.4170000000
      1.6480000000      -4.3630000000      12.0650000000       0.4170000000
     -0.7820151596       0.8508448759       1.1702204388      -0.8340000000
     -1.0366341714       0.7852343862       2.1201347351       0.4170000000
     -1.3506308719       1.6151662047       0.9094669525       0.4170000000
    -19.4450000000     -19.8340000000     -18.6330000000      -0.8340000000
    -18.9380000000     -19.1450000000     -18.2030000000       0.4170000000
    -20.3540000000     -19.6420000000     -18.4030000000       0.4170000000
    -16.8233235004     -16.7889160656     -10.7661989860      -0.8340000000
    -16.5412873159     -17.7208417676     -10.8423724600       0.4170000000
    -16.1375500510     -16.3189581114     -11.2859920985       0.4170000000
     -4.2229334959       0.3858060859     -10.1733631549      -0.8340000000
     -5.1547104657       0.1184252856     -10.2972070508       0.4170000000
     -4.2859374665       1.3285160267     -10.4196630290       0.4170000000
    -22.2888122202      -6.6293705649      -7.7979276708      -0.8340000000
    -21.9425175352      -6.5533761773      -6.8889403808       0.4170000000
    -21.5081338021      -7.0046073023      -8.2530991254       0.4170000000
     10.4640000000      -3.2980000000     -17.0380000000      -0.8340000000
      9.9960000000      -2.6400000000     -16.5240000000       0.4170000000
      9.8830000000      -4.0590000000     -17.0390000000       0.4170000000
    -14.0199812439     -14.9320113850       5.0185958356      -0.8340000000
    -14.5535621167     -15.4930786133       4.4217844000       0.4170000000
    -13.5171936094     -14.4368193150       4.3359972473       0.4170000000
     -7.4901533868       4.9345884670      -6.2903799268      -0.8340000000
     -6.9335198563       4.1235594275      -6.2606662201       0.4170000000
     -8.0208576224       4.8177566970      -5.4750867617       0.4170000000
      0.4480000000     -27.6550000000       4.3590000000      -0.8340000000
      0.0130000000     -28.5030000000       4.2820000000       0.4170000000
      0.1600000000     -27.1660000000       3.5880000000       0.4170000000
     -0.8670000000      -3.3690000000     -22.8590000000      -0.8340000000
     -0.3210000000      -2.8350000000     -23.4360000000       0.4170000000
     -0.3130000000      -4.1140000000     -22.6260000000       0.4170000000
     -5.3020388715      -4.8597693056       3.4819616612      -0.8340000000
     -6.2018120449      -5.1575609927       3.2200603109       0.4170000000
     -5.0023995563      -4.4998579513       2.6164368836       0.4170000000
    -21.3850000000      -1.0290000000       5.9340000000      -0.8340000000
    -20.4790000000      -0.9550000000       5.6330000000       0.4170000000
    -21.3280000000      -0.9590000000       6.8870000000       0.4170000000
      1.7751718946     -18.6310974114      -2.3557990240      -0.8340000000
      2.0233862424     -18.8604494381      -3.2721319171       0.4170000000
      0.8172222258     -18.8106793709      -2.3979327095       0.4170000000
     -1.0774616823     -10.5885948567       6.6403265081      -0.8340000000
     -0.7895237423     -10.4422988572       5.7149291889       0.4170000000
     -1.0360690195     -11.5659202136       6.6934879328       0.4170000000
      9.9160000000     -17.2030000000     -17.4370000000      -0.8340000000
     10.5000000000     -17.1530000000     -16.6800000000       0.4170000000
     10.4710000000     -17.5260000000     -18.1470000000       0.4170000000
      0.7553323904     -10.1857605814      -7.7110762386      -0.8340000000
     -0.1273522122     -10.6192446379      -7.6497153143       0.4170000000
      1.1580639433     -10.4909761310      -6.8699746950       0.4170000000
    -13.3128514471      -3.8368421277      -0.3993977686      -0.8340000000
    -13.7332103367      -3.2380655458      -1.0415118669       0.4170000000
    -13.4459947791      -3.3355031719       0.4322683344       0.4170000000
      2.5280000000      -0.2490000000       9.9690000000      -0.8340000000
      3.3950000000      -0.6560000000       9.9690000000       0.4170000000
      2.6960000000       0.6730000000       9.7720000000       0.4170000000
      6.5970000000     -12.4080000000      12.0930000000      -0.8340000000
      5.8020000000     -12.6770000000      11.6310000000       0.4170000000
      6.3300000000     -12.3380000000      13.0090000000       0.4170000000
    -22.6540000000      -5.9510000000       3.8400000000      -0.8340000000
    -22.2600000000      -6.6000000000       3.2570000000       0.4170000000
    -22.1030000000      -5.1750000000       3.7420000000       0.4170000000
     10.9000000000     -23.7710000000     -10.1260000000      -0.8340000000
     10.5590000000     -23.1230000000      -9.5100000000       0.4170000000
     11.8490000000     -23.7350000000     -10.0110000000       0.4170000000
    -21.4291189193      -7.9827535928     -12.6368099300      -0.8340000000
    -21.9836317196      -8.5343375353     -13.1886274259       0.4170000000
    -20.5405867208      -8.1400070855     -12.9562057837       0.4170000000
    -19.2123495518     -12.7279404768     -11.7024779596      -0.8340000000
    -19.5904494155     -12.3347887613     -10.8815423226       0.4170000000
    -18.2868993330     -12.4153306374     -11.5961783761       0.4170000000
     -2.8547511969       1.4011384233      -3.6148963307      -0.8340000000
     -2.8917092701       0.9072957996      -4.4630387824       0.4170000000
     -1.9837979821       1.0863836889      -3.2914369790       0.4170000000
     -1.8310000000      -1.0780000000     -21.3540000000      -0.8340000000
     -1.0370000000      -0.5570000000     -21.4780000000       0.4170000000
     -1.7630000000      -1.7770000000     -22.0030000000       0.4170000000
    -19.6120000000     -22.3050000000     -15.9660000000      -0.8340000000
    -18.8090000000     -22.7630000000     -16.2180000000       0.4170000000
    -19.3160000000     -21.4380000000     -15.6900000000       0.4170000000
    -11.9289267985     -21.3617004509     -15.9438413897      -0.8340000000
    -10.9679600270     -21.4415165985     -16.1282867906       0.4170000000
    -12.0538271731     -22.1887740016     -15.4390452599       0.4170000000
     -7.9030000000     -12.4850000000     -22.8610000000      -0.8340000000
     -7.3680000000     -12.7750000000     -23.6010000000       0.4170000000
     -7.3960000000     -12.7330000000     -22.0880000000       0.4170000000
    -15.6438829766      -0.7715903767     -14.6059347482      -0.8340000000
    -14.8899009192      -0.7349493733     -15.2200130984       0.4170000000
    -15.2028125684      -1.1846459078     -13.8377210244       0.4170000000
     -5.0381896637     -24.7292859530       3.0966477450      -0.8340000000
     -5.2076169101     -24.2726469131       2.2430976366       0.4170000000
     -5.9473497148     -24.9718548098       3.3535502081       0.4170000000
      0.3710000000       4.8080000000     -13.5320000000      -0.8340000000
      0.8550000000       5.2820000000     -14.2080000000       0.4170000000
     -0.5490000000       4.9300000000     -13.7650000000       0.4170000000
      4.1831747613      -8.0103015202       1.7534084571      -0.8340000000
      4.8062697828      -7.3087457400       2.0231245789       0.4170000000
      4.3307954580      -8.6769526755       2.4587240355       0.4170000000
    -11.7170000000     -15.1930000000     -22.4150000000      -0.8340000000
    -10.8950000000     -15.6220000000     -22.1770000000       0.4170000000
    -11.4520000000     -14.3420000000     -22.7650000000       0.4170000000
      1.6120000000       1.6970000000       4.6020000000      -0.8340000000
      0.9040000000       2.2290000000       4.2400000000       0.4170000000
      2.3960000000       1.9920000000       4.1390000000       0.4170000000
     -8.3740000000     -28.0310000000      -8.1660000000      -0.8340000000
     -8.5540000000     -28.9650000000      -8.2740000000       0.4170000000
     -8.1760000000     -27.7210000000      -9.0500000000       0.4170000000
      2.6418092996     -14.6450404705      -4.1230140638      -0.8340000000
      1.8297398730     -15.1354097649      -4.3905866678       0.4170000000
      2.9537994716     -15.2157737832      -3.3871463888       0.4170000000
    -25.3650000000      -8.8600000000      -6.2720000000      -0.8340000000
    -25.4420000000      -7.9900000000      -5.8800000000       0.4170000000
    -26.1970000000      -8.9930000000      -6.7260000000       0.4170000000
    -19.3960000000     -16.6070000000       9.0060000000      -0.8340000000
    -19.8660000000     -15.9520000000       9.5210000000       0.4170000000
    -19.2530000000     -17.3330000000       9.6130000000       0.4170000000
      2.5651252489     -11.7115018498     -16.5796301239      -0.8340000000
      3.2685231277     -11.5311529180     -17.2382717642       0.4170000000
      2.7761508649     -11.0868142209     -15.8676950649       0.4170000000
      7.6689546096     -18.8414544247     -12.1547066165      -0.8340000000
      8.3329102419     -19.5538689229     -12.1363307859       0.4170000000
      7.3539712659     -18.8412576577     -11.2222940972       0.4170000000
    -11.5604815658      -4.6411797820     -19.2430078162      -0.8340000000
    -12.0415131852      -5.3477908569     -18.8122628685       0.4170000000
    -12.1276220530      -3.8753218279     -19.1533133240       0.4170000000
    -15.9483747536      -7.1358981791     -16.8696977051      -0.8340000000
    -16.5845516424      -6.4616161126     -17.1572705741       0.4170000000